[TITLE]
;; CONDE - BACIA A - rede importada e areas preliminares
;; Modelo conceitual: validar topologia, cotas, diametros, nos de saida e quadras antes de uso decisorio.

[OPTIONS]
FLOW_UNITS           CMS
INFILTRATION         CURVE_NUMBER
FLOW_ROUTING         DYNWAVE
LINK_OFFSETS         DEPTH
MIN_SLOPE            0
ALLOW_PONDING        YES
SKIP_STEADY_STATE    NO
START_DATE           01/01/2026
START_TIME           00:00:00
END_DATE             01/01/2026
END_TIME             06:00:00
REPORT_START_DATE    01/01/2026
REPORT_START_TIME    00:00:00
SWEEP_START          01/01
SWEEP_END            12/31
DRY_DAYS             0
WET_STEP             00:01:00
REPORT_STEP          00:01:00
RULE_STEP            00:01:00
INERTIAL_DAMPING     PARTIAL
VARIABLE_STEP        0.0
LENGTHENING_STEP     0
MIN_SURFAREA         0
MAX_TRIALS            8
HEAD_TOLERANCE       0.0015
THREADS              4

[EVAPORATION]
;; Evaporacao nao e relevante para o evento de projeto preliminar.
CONSTANT             0

[RAINGAGES]
;; Name                 Format  Interval SCF  Source
RG_TR50             INTENSITY 0:05 1.0 TIMESERIES TS_TR50

[SUBCATCHMENTS]
;;Name                 Rain Gage            Outlet               Area(ha) Width(m) Slope(%) CurbLength(mm) SnowPack
SC_A_0001              RG_TR50                 N_A_0195                2.194 30.0    98.38    5.431 0
SC_A_0002              RG_TR50                 N_A_0109                1.654 30.0   109.42   14.854 0
SC_A_0003              RG_TR50                 N_A_0151                0.604 30.0    79.41   18.789 0
SC_A_0004              RG_TR50                 N_A_0150                1.269 30.0   102.73   30.293 0
SC_A_0005              RG_TR50                 N_A_0193                1.484 30.0   116.51    5.911 0
SC_A_0006              RG_TR50                 N_A_0149                1.276 30.0   104.11   19.676 0
SC_A_0007              RG_TR50                 N_A_0154                0.854 30.0    79.37   17.971 0
SC_A_0008              RG_TR50                 N_A_0148                1.418 30.0    87.24    8.044 0
SC_A_0009              RG_TR50                 N_A_0153                1.090 30.0   102.86    7.767 0
SC_A_0010              RG_TR50                 N_A_0155                0.348 30.0    41.17    9.342 0
SC_A_0011              RG_TR50                 N_A_0120                0.335 30.0    49.92    4.770 0
SC_A_0012              RG_TR50                 N_A_0118                1.296 30.0    94.52    9.073 0
SC_A_0013              RG_TR50                 N_A_0121                0.435 30.0    58.94   15.564 0
SC_A_0014              RG_TR50                 N_A_0116                1.656 30.0   110.99   32.804 0
SC_A_0015              RG_TR50                 N_A_0152                1.252 30.0   108.75   40.108 0
SC_A_0016              RG_TR50                 N_A_0115                1.669 30.0   109.14   21.731 0
SC_A_0017              RG_TR50                 N_A_0074                1.719 30.0   113.60   20.720 0
SC_A_0018              RG_TR50                 N_A_0113                0.500 30.0    59.84    7.168 0
SC_A_0019              RG_TR50                 N_A_0075                0.656 30.0    81.39   10.494 0
SC_A_0020              RG_TR50                 N_A_0119                0.883 30.0    91.50   14.817 0
SC_A_0021              RG_TR50                 N_A_0105                0.835 30.0    86.29   16.191 0
SC_A_0022              RG_TR50                 N_A_0076                1.283 30.0   103.53   12.601 0
SC_A_0023              RG_TR50                 N_A_0077               11.242 30.0   271.59   12.452 0
SC_A_0024              RG_TR50                 N_A_0199               24.049 30.0   406.42    8.755 0
SC_A_0025              RG_TR50                 N_A_0073                0.622 30.0    82.07    7.329 0
SC_A_0026              RG_TR50                 N_A_0106                1.000 30.0    92.11    7.729 0
SC_A_0027              RG_TR50                 N_A_0157                0.139 30.0    20.00    3.981 0
SC_A_0028              RG_TR50                 N_A_0117                0.507 30.0    62.66    4.369 0
SC_A_0029              RG_TR50                 N_A_0114                0.389 30.0    52.57    5.449 0
SC_A_0030              RG_TR50                 N_A_0123                1.055 30.0    93.65   90.246 0
SC_A_0031              RG_TR50                 N_A_0162                0.319 30.0    50.34    8.169 0
SC_A_0032              RG_TR50                 N_A_0122                0.872 30.0    93.62    7.191 0
SC_A_0033              RG_TR50                 N_A_0108                0.458 30.0    53.41    5.544 0
SC_A_0034              RG_TR50                 N_A_0107                0.205 30.0    43.41    4.504 0
SC_A_0035              RG_TR50                 N_A_0104                1.185 30.0   101.61    7.714 0
SC_A_0036              RG_TR50                 N_A_0071                0.126 30.0    34.04    4.199 0
SC_A_0037              RG_TR50                 N_A_0103                1.165 30.0    94.39    4.977 0
SC_A_0038              RG_TR50                 N_A_0078                0.379 30.0    48.96    4.606 0
SC_A_0039              RG_TR50                 N_A_0072                1.603 30.0   108.93    8.789 0
SC_A_0040              RG_TR50                 N_A_0069                0.491 30.0    55.44    6.722 0
SC_A_0041              RG_TR50                 N_A_0068                1.179 30.0   103.65    5.740 0
SC_A_0042              RG_TR50                 N_A_0160                0.000 30.0    20.00    5.426 0
SC_A_0043              RG_TR50                 N_A_0160                0.088 30.0    22.83    3.288 0
SC_A_0044              RG_TR50                 N_A_0158                1.394 30.0   117.97    3.582 0
SC_A_0045              RG_TR50                 N_A_0156                0.157 30.0    22.28    5.458 0
SC_A_0046              RG_TR50                 N_A_0111                0.505 30.0    68.88    5.729 0
SC_A_0047              RG_TR50                 N_A_0161                1.080 30.0    85.12    7.274 0
SC_A_0048              RG_TR50                 N_A_0159                0.852 30.0    88.77    4.902 0
SC_A_0049              RG_TR50                 N_A_0125                0.553 30.0    75.66    9.874 0
SC_A_0050              RG_TR50                 N_A_0112                0.257 30.0    44.32    6.463 0
SC_A_0051              RG_TR50                 N_A_0070                1.351 30.0   104.67    4.246 0
SC_A_0052              RG_TR50                 N_A_0127                1.476 30.0   108.52   25.141 0
SC_A_0053              RG_TR50                 N_A_0124                0.537 30.0    70.19   12.416 0
SC_A_0054              RG_TR50                 N_A_0067                0.371 30.0    54.31    3.051 0
SC_A_0055              RG_TR50                 N_A_0126                0.558 30.0    76.28    8.980 0
SC_A_0056              RG_TR50                 N_A_0110                0.155 30.0    30.08    2.137 0
SC_A_0057              RG_TR50                 N_A_0079                0.360 30.0    51.89    5.147 0
SC_A_0058              RG_TR50                 N_A_0066                0.162 30.0    33.73    3.897 0
SC_A_0059              RG_TR50                 N_A_0146                0.347 30.0    59.77    2.604 0
SC_A_0060              RG_TR50                 N_A_0147                0.336 30.0    58.68    7.762 0
SC_A_0061              RG_TR50                 N_A_0200                1.913 30.0   131.49    5.779 0
SC_A_0062              RG_TR50                 N_A_0163                1.500 30.0   119.11    5.747 0
SC_A_0063              RG_TR50                 N_A_0062                0.163 30.0    35.28    1.372 0
SC_A_0064              RG_TR50                 N_A_0129                1.396 30.0   104.34   11.900 0
SC_A_0065              RG_TR50                 N_A_0145                0.327 30.0    55.69    4.451 0
SC_A_0066              RG_TR50                 N_A_0080                0.253 30.0    41.12    3.831 0
SC_A_0067              RG_TR50                 N_A_0063                0.428 30.0    60.73    5.361 0
SC_A_0068              RG_TR50                 N_A_0144                0.435 30.0    59.64    4.111 0
SC_A_0069              RG_TR50                 N_A_0198                1.901 30.0   113.62    3.848 0
SC_A_0070              RG_TR50                 N_A_0198                0.066 30.0    20.00    1.572 0
SC_A_0071              RG_TR50                 N_A_0065                0.483 30.0    69.98    6.962 0
SC_A_0072              RG_TR50                 N_A_0064                0.433 30.0    65.36    7.520 0
SC_A_0073              RG_TR50                 N_A_0059                0.260 30.0    42.10    3.744 0
SC_A_0074              RG_TR50                 N_A_0061                0.416 30.0    59.62    3.588 0
SC_A_0075              RG_TR50                 N_A_0132                0.828 30.0    88.88    7.843 0
SC_A_0076              RG_TR50                 N_A_0081                0.327 30.0    50.69    6.866 0
SC_A_0077              RG_TR50                 N_A_0130                0.909 30.0    92.28    2.242 0
SC_A_0078              RG_TR50                 N_A_0128                0.529 30.0    73.45   19.236 0
SC_A_0079              RG_TR50                 N_A_0131                0.536 30.0    74.38   14.685 0
SC_A_0080              RG_TR50                 N_A_0164                0.611 30.0    69.93    8.232 0
SC_A_0081              RG_TR50                 N_A_0060                0.351 30.0    53.30    9.189 0
SC_A_0082              RG_TR50                 N_A_0191                0.691 30.0    81.63   10.736 0
SC_A_0083              RG_TR50                 N_A_0093                0.220 30.0    41.78    1.111 0
SC_A_0084              RG_TR50                 N_A_0190                0.756 30.0    81.72    9.095 0
SC_A_0085              RG_TR50                 N_A_0197                0.243 30.0    46.39    5.470 0
SC_A_0086              RG_TR50                 N_A_0189                0.350 30.0    54.68    6.979 0
SC_A_0087              RG_TR50                 N_A_0175                1.472 30.0   101.13    1.694 0
SC_A_0088              RG_TR50                 N_A_0082                0.892 30.0    91.96    5.901 0
SC_A_0089              RG_TR50                 N_A_0136                0.698 30.0    81.71    9.313 0
SC_A_0090              RG_TR50                 N_A_0084                0.726 30.0    85.32    7.752 0
SC_A_0091              RG_TR50                 N_A_0022                0.559 30.0    69.02   10.836 0
SC_A_0092              RG_TR50                 N_A_0176                0.387 30.0    53.07    6.675 0
SC_A_0093              RG_TR50                 N_A_0036                0.001 30.0    20.00   11.086 0
SC_A_0094              RG_TR50                 N_A_0036                0.145 30.0    21.01    3.324 0
SC_A_0095              RG_TR50                 N_A_0085                0.637 30.0    80.99    6.743 0
SC_A_0096              RG_TR50                 N_A_0134                0.553 30.0    75.48    8.489 0
SC_A_0097              RG_TR50                 N_A_0177                1.421 30.0   106.02    3.404 0
SC_A_0098              RG_TR50                 N_A_0086                0.621 30.0    80.88    4.577 0
SC_A_0099              RG_TR50                 N_A_0178                0.980 30.0    99.78    2.870 0
SC_A_0100              RG_TR50                 N_A_0135                0.030 30.0    20.00    7.623 0
SC_A_0101              RG_TR50                 N_A_0139                0.452 30.0    66.66   12.574 0
SC_A_0102              RG_TR50                 N_A_0166                0.072 30.0    20.00    7.004 0
SC_A_0103              RG_TR50                 N_A_0167                0.868 30.0    79.52   16.965 0
SC_A_0104              RG_TR50                 N_A_0133                0.602 30.0    78.28   19.887 0
SC_A_0105              RG_TR50                 N_A_0083                1.687 30.0   131.13    7.771 0
SC_A_0106              RG_TR50                 N_A_0092                0.415 30.0    57.61    8.840 0
SC_A_0107              RG_TR50                 N_A_0171                0.308 30.0    50.26   21.710 0
SC_A_0108              RG_TR50                 N_A_0165                0.102 30.0    20.00    7.403 0
SC_A_0109              RG_TR50                 N_A_0168                0.165 30.0    27.59   14.519 0
SC_A_0110              RG_TR50                 N_A_0168                0.005 30.0    20.00   41.093 0
SC_A_0111              RG_TR50                 N_A_0168                0.003 30.0    20.00   13.595 0
SC_A_0112              RG_TR50                 N_A_0138                0.532 30.0    73.67   10.477 0
SC_A_0113              RG_TR50                 N_A_0088                0.303 30.0    54.30    3.343 0
SC_A_0114              RG_TR50                 N_A_0180                0.468 30.0    69.22    6.252 0
SC_A_0115              RG_TR50                 N_A_0137                0.590 30.0    75.93   16.052 0
SC_A_0116              RG_TR50                 N_A_0087                0.325 30.0    47.37    5.524 0
SC_A_0117              RG_TR50                 N_A_0089                0.601 30.0    73.82    8.113 0
SC_A_0118              RG_TR50                 N_A_0021                0.548 30.0    76.90    5.363 0
SC_A_0119              RG_TR50                 N_A_0169                0.037 30.0    20.00   21.495 0
SC_A_0120              RG_TR50                 N_A_0169                0.005 30.0    20.00   48.559 0
SC_A_0121              RG_TR50                 N_A_0091                1.629 30.0   132.59    7.572 0
SC_A_0122              RG_TR50                 N_A_0019                0.629 30.0    76.25    5.126 0
SC_A_0123              RG_TR50                 N_A_0141                0.861 30.0    92.30    7.402 0
SC_A_0124              RG_TR50                 N_A_0090                0.242 30.0    48.44    3.646 0
SC_A_0125              RG_TR50                 N_A_0182                1.563 30.0   118.88    7.300 0
SC_A_0126              RG_TR50                 N_A_0179                0.985 30.0    91.46    5.676 0
SC_A_0127              RG_TR50                 N_A_0183                0.866 30.0    92.26    8.964 0
SC_A_0128              RG_TR50                 N_A_0018                0.658 30.0    77.90    6.091 0
SC_A_0129              RG_TR50                 N_A_0170                0.389 30.0    52.36   24.769 0
SC_A_0130              RG_TR50                 N_A_0094                0.951 30.0    94.67    8.338 0
SC_A_0131              RG_TR50                 N_A_0058                0.261 30.0    42.30    7.212 0
SC_A_0132              RG_TR50                 N_A_0140                0.618 30.0    79.96   38.665 0
SC_A_0133              RG_TR50                 N_A_0143                0.839 30.0    92.87   12.047 0
SC_A_0134              RG_TR50                 N_A_0020                0.330 30.0    56.90    6.881 0
SC_A_0135              RG_TR50                 N_A_0181                0.499 30.0    64.97    8.192 0
SC_A_0136              RG_TR50                 N_A_0017                0.481 30.0    68.33    8.107 0
SC_A_0137              RG_TR50                 N_A_0096                0.650 30.0    74.05    7.851 0
SC_A_0138              RG_TR50                 N_A_0095                0.605 30.0    70.04    9.250 0
SC_A_0139              RG_TR50                 N_A_0184                1.433 30.0    99.79    8.560 0
SC_A_0140              RG_TR50                 N_A_0016                1.088 30.0    99.68   16.353 0
SC_A_0141              RG_TR50                 N_A_0142                0.629 30.0    80.86   29.586 0
SC_A_0142              RG_TR50                 N_A_0192                0.408 30.0    33.56    5.844 0
SC_A_0143              RG_TR50                 N_A_0172                0.093 30.0    26.11   18.527 0
SC_A_0144              RG_TR50                 N_A_0101                2.597 30.0   166.71    6.384 0
SC_A_0145              RG_TR50                 N_A_0098                0.183 30.0    38.24   12.923 0
SC_A_0146              RG_TR50                 N_A_0173                0.010 30.0    20.00   17.568 0
SC_A_0147              RG_TR50                 N_A_0097                0.673 30.0    75.31    8.910 0
SC_A_0148              RG_TR50                 N_A_0044                0.852 30.0    93.28   39.614 0
SC_A_0149              RG_TR50                 N_A_0174                0.116 30.0    25.94   14.666 0
SC_A_0150              RG_TR50                 N_A_0028                0.511 30.0    58.92    4.112 0
SC_A_0151              RG_TR50                 N_A_0028                0.048 30.0    20.00    8.426 0
SC_A_0152              RG_TR50                 N_A_0196                0.729 30.0    84.43  151.203 0
SC_A_0153              RG_TR50                 N_A_0015                0.912 30.0    99.76   10.165 0
SC_A_0154              RG_TR50                 N_A_0099                0.446 30.0    61.09   20.020 0
SC_A_0155              RG_TR50                 N_A_0054                0.509 30.0    70.21   11.045 0
SC_A_0156              RG_TR50                 N_A_0012                1.184 30.0   109.15   16.236 0
SC_A_0157              RG_TR50                 N_A_0027                1.618 30.0   125.35   15.291 0
SC_A_0158              RG_TR50                 N_A_0185                0.541 30.0    58.04   10.224 0
SC_A_0159              RG_TR50                 N_A_0102                0.826 30.0    85.33   11.577 0
SC_A_0160              RG_TR50                 N_A_0013                0.510 30.0    70.11    6.883 0
SC_A_0161              RG_TR50                 N_A_0011                0.988 30.0    87.31    7.960 0
SC_A_0162              RG_TR50                 N_A_0014                0.328 30.0    54.22    6.357 0
SC_A_0163              RG_TR50                 N_A_0100                0.915 30.0    86.22   11.438 0
SC_A_0164              RG_TR50                 N_A_0043                0.682 30.0    81.58   11.165 0
SC_A_0165              RG_TR50                 N_A_0056                0.698 30.0    83.55   19.295 0
SC_A_0166              RG_TR50                 N_A_0010                0.702 30.0    78.03   17.470 0
SC_A_0167              RG_TR50                 N_A_0026                0.784 30.0    86.97    5.608 0
SC_A_0168              RG_TR50                 N_A_0030                0.407 30.0    41.38    9.285 0
SC_A_0169              RG_TR50                 N_A_0188                0.937 30.0    89.72   10.338 0
SC_A_0170              RG_TR50                 N_A_0057                0.679 30.0    79.28   18.572 0
SC_A_0171              RG_TR50                 N_A_0007                0.798 30.0    78.52   12.826 0
SC_A_0172              RG_TR50                 N_A_0029                0.119 30.0    26.60   15.913 0
SC_A_0173              RG_TR50                 N_A_0042                0.929 30.0    97.72   18.543 0
SC_A_0174              RG_TR50                 N_A_0055                1.031 30.0    95.86    5.904 0
SC_A_0175              RG_TR50                 N_A_0032                0.192 30.0    24.42    8.535 0
SC_A_0176              RG_TR50                 N_A_0032                0.111 30.0    22.73   13.615 0
SC_A_0177              RG_TR50                 N_A_0009                0.180 30.0    36.82    9.066 0
SC_A_0178              RG_TR50                 N_A_0025                0.720 30.0    83.59    6.422 0
SC_A_0179              RG_TR50                 N_A_0046                0.863 30.0    88.77   16.860 0
SC_A_0180              RG_TR50                 N_A_0031                0.138 30.0    30.13   12.394 0
SC_A_0181              RG_TR50                 N_A_0186                0.378 30.0    53.56    8.635 0
SC_A_0182              RG_TR50                 N_A_0006                0.886 30.0    93.34   18.163 0
SC_A_0183              RG_TR50                 N_A_0008                0.643 30.0    79.11   14.085 0
SC_A_0184              RG_TR50                 N_A_0048                1.009 30.0    93.50    4.149 0
SC_A_0185              RG_TR50                 N_A_0041                0.752 30.0    84.59    8.725 0
SC_A_0186              RG_TR50                 N_A_0034                0.098 30.0    22.23   12.097 0
SC_A_0187              RG_TR50                 N_A_0005                0.827 30.0    78.20    4.826 0
SC_A_0188              RG_TR50                 N_A_0187                0.181 30.0    37.74   11.556 0
SC_A_0189              RG_TR50                 N_A_0024                0.537 30.0    70.88    5.066 0
SC_A_0190              RG_TR50                 N_A_0040                0.768 30.0    86.71    7.793 0
SC_A_0191              RG_TR50                 N_A_0003                0.877 30.0    70.85    6.226 0
SC_A_0192              RG_TR50                 N_A_0004                0.689 30.0    67.92    7.194 0
SC_A_0193              RG_TR50                 N_A_0047                1.159 30.0    95.28    5.841 0
SC_A_0194              RG_TR50                 N_A_0053                1.012 30.0    78.87    1.804 0
SC_A_0195              RG_TR50                 N_A_0035                0.273 30.0    32.83    4.794 0
SC_A_0196              RG_TR50                 N_A_0050                1.213 30.0   102.08    1.902 0
SC_A_0197              RG_TR50                 N_A_0023                0.373 30.0    56.57    3.035 0
SC_A_0198              RG_TR50                 N_A_0033                0.029 30.0    20.00    5.995 0
SC_A_0199              RG_TR50                 N_A_0039                1.000 30.0    98.90    3.719 0
SC_A_0200              RG_TR50                 N_A_0194                0.339 30.0    46.88    6.599 0
SC_A_0201              RG_TR50                 N_A_0037                1.877 30.0   104.07    5.250 0
SC_A_0202              RG_TR50                 N_A_0038                0.724 30.0    72.65    4.182 0
SC_A_0203              RG_TR50                 N_A_0002                0.484 30.0    59.75    6.487 0
SC_A_0204              RG_TR50                 N_A_0052                1.392 30.0   104.93    5.798 0
SC_A_0205              RG_TR50                 N_A_0049                1.442 30.0    96.89    4.289 0
SC_A_0206              RG_TR50                 N_A_0045                0.309 30.0    48.02    3.990 0
SC_A_0207              RG_TR50                 N_A_0001                0.815 30.0    82.63    5.700 0
SC_A_0208              RG_TR50                 N_A_0051                0.669 30.0    47.19    1.565 0

[SUBAREAS]
;;Subcatchment          N-Imperv N-Perv S-Imperv S-Perv PctZero Route PctRouted
SC_A_0001              0.014 0.150 1.5 5.0 25 OUTLET 0
SC_A_0002              0.014 0.150 1.5 5.0 25 OUTLET 0
SC_A_0003              0.014 0.150 1.5 5.0 25 OUTLET 0
SC_A_0004              0.014 0.150 1.5 5.0 25 OUTLET 0
SC_A_0005              0.014 0.150 1.5 5.0 25 OUTLET 0
SC_A_0006              0.014 0.150 1.5 5.0 25 OUTLET 0
SC_A_0007              0.014 0.150 1.5 5.0 25 OUTLET 0
SC_A_0008              0.014 0.150 1.5 5.0 25 OUTLET 0
SC_A_0009              0.014 0.150 1.5 5.0 25 OUTLET 0
SC_A_0010              0.014 0.150 1.5 5.0 25 OUTLET 0
SC_A_0011              0.014 0.150 1.5 5.0 25 OUTLET 0
SC_A_0012              0.014 0.150 1.5 5.0 25 OUTLET 0
SC_A_0013              0.014 0.150 1.5 5.0 25 OUTLET 0
SC_A_0014              0.014 0.150 1.5 5.0 25 OUTLET 0
SC_A_0015              0.014 0.150 1.5 5.0 25 OUTLET 0
SC_A_0016              0.014 0.150 1.5 5.0 25 OUTLET 0
SC_A_0017              0.014 0.150 1.5 5.0 25 OUTLET 0
SC_A_0018              0.014 0.150 1.5 5.0 25 OUTLET 0
SC_A_0019              0.014 0.150 1.5 5.0 25 OUTLET 0
SC_A_0020              0.014 0.150 1.5 5.0 25 OUTLET 0
SC_A_0021              0.014 0.150 1.5 5.0 25 OUTLET 0
SC_A_0022              0.014 0.150 1.5 5.0 25 OUTLET 0
SC_A_0023              0.014 0.150 1.5 5.0 25 OUTLET 0
SC_A_0024              0.014 0.150 1.5 5.0 25 OUTLET 0
SC_A_0025              0.014 0.150 1.5 5.0 25 OUTLET 0
SC_A_0026              0.014 0.150 1.5 5.0 25 OUTLET 0
SC_A_0027              0.014 0.150 1.5 5.0 25 OUTLET 0
SC_A_0028              0.014 0.150 1.5 5.0 25 OUTLET 0
SC_A_0029              0.014 0.150 1.5 5.0 25 OUTLET 0
SC_A_0030              0.014 0.150 1.5 5.0 25 OUTLET 0
SC_A_0031              0.014 0.150 1.5 5.0 25 OUTLET 0
SC_A_0032              0.014 0.150 1.5 5.0 25 OUTLET 0
SC_A_0033              0.014 0.150 1.5 5.0 25 OUTLET 0
SC_A_0034              0.014 0.150 1.5 5.0 25 OUTLET 0
SC_A_0035              0.014 0.150 1.5 5.0 25 OUTLET 0
SC_A_0036              0.014 0.150 1.5 5.0 25 OUTLET 0
SC_A_0037              0.014 0.150 1.5 5.0 25 OUTLET 0
SC_A_0038              0.014 0.150 1.5 5.0 25 OUTLET 0
SC_A_0039              0.014 0.150 1.5 5.0 25 OUTLET 0
SC_A_0040              0.014 0.150 1.5 5.0 25 OUTLET 0
SC_A_0041              0.014 0.150 1.5 5.0 25 OUTLET 0
SC_A_0042              0.014 0.150 1.5 5.0 25 OUTLET 0
SC_A_0043              0.014 0.150 1.5 5.0 25 OUTLET 0
SC_A_0044              0.014 0.150 1.5 5.0 25 OUTLET 0
SC_A_0045              0.014 0.150 1.5 5.0 25 OUTLET 0
SC_A_0046              0.014 0.150 1.5 5.0 25 OUTLET 0
SC_A_0047              0.014 0.150 1.5 5.0 25 OUTLET 0
SC_A_0048              0.014 0.150 1.5 5.0 25 OUTLET 0
SC_A_0049              0.014 0.150 1.5 5.0 25 OUTLET 0
SC_A_0050              0.014 0.150 1.5 5.0 25 OUTLET 0
SC_A_0051              0.014 0.150 1.5 5.0 25 OUTLET 0
SC_A_0052              0.014 0.150 1.5 5.0 25 OUTLET 0
SC_A_0053              0.014 0.150 1.5 5.0 25 OUTLET 0
SC_A_0054              0.014 0.150 1.5 5.0 25 OUTLET 0
SC_A_0055              0.014 0.150 1.5 5.0 25 OUTLET 0
SC_A_0056              0.014 0.150 1.5 5.0 25 OUTLET 0
SC_A_0057              0.014 0.150 1.5 5.0 25 OUTLET 0
SC_A_0058              0.014 0.150 1.5 5.0 25 OUTLET 0
SC_A_0059              0.014 0.150 1.5 5.0 25 OUTLET 0
SC_A_0060              0.014 0.150 1.5 5.0 25 OUTLET 0
SC_A_0061              0.014 0.150 1.5 5.0 25 OUTLET 0
SC_A_0062              0.014 0.150 1.5 5.0 25 OUTLET 0
SC_A_0063              0.014 0.150 1.5 5.0 25 OUTLET 0
SC_A_0064              0.014 0.150 1.5 5.0 25 OUTLET 0
SC_A_0065              0.014 0.150 1.5 5.0 25 OUTLET 0
SC_A_0066              0.014 0.150 1.5 5.0 25 OUTLET 0
SC_A_0067              0.014 0.150 1.5 5.0 25 OUTLET 0
SC_A_0068              0.014 0.150 1.5 5.0 25 OUTLET 0
SC_A_0069              0.014 0.150 1.5 5.0 25 OUTLET 0
SC_A_0070              0.014 0.150 1.5 5.0 25 OUTLET 0
SC_A_0071              0.014 0.150 1.5 5.0 25 OUTLET 0
SC_A_0072              0.014 0.150 1.5 5.0 25 OUTLET 0
SC_A_0073              0.014 0.150 1.5 5.0 25 OUTLET 0
SC_A_0074              0.014 0.150 1.5 5.0 25 OUTLET 0
SC_A_0075              0.014 0.150 1.5 5.0 25 OUTLET 0
SC_A_0076              0.014 0.150 1.5 5.0 25 OUTLET 0
SC_A_0077              0.014 0.150 1.5 5.0 25 OUTLET 0
SC_A_0078              0.014 0.150 1.5 5.0 25 OUTLET 0
SC_A_0079              0.014 0.150 1.5 5.0 25 OUTLET 0
SC_A_0080              0.014 0.150 1.5 5.0 25 OUTLET 0
SC_A_0081              0.014 0.150 1.5 5.0 25 OUTLET 0
SC_A_0082              0.014 0.150 1.5 5.0 25 OUTLET 0
SC_A_0083              0.014 0.150 1.5 5.0 25 OUTLET 0
SC_A_0084              0.014 0.150 1.5 5.0 25 OUTLET 0
SC_A_0085              0.014 0.150 1.5 5.0 25 OUTLET 0
SC_A_0086              0.014 0.150 1.5 5.0 25 OUTLET 0
SC_A_0087              0.014 0.150 1.5 5.0 25 OUTLET 0
SC_A_0088              0.014 0.150 1.5 5.0 25 OUTLET 0
SC_A_0089              0.014 0.150 1.5 5.0 25 OUTLET 0
SC_A_0090              0.014 0.150 1.5 5.0 25 OUTLET 0
SC_A_0091              0.014 0.150 1.5 5.0 25 OUTLET 0
SC_A_0092              0.014 0.150 1.5 5.0 25 OUTLET 0
SC_A_0093              0.014 0.150 1.5 5.0 25 OUTLET 0
SC_A_0094              0.014 0.150 1.5 5.0 25 OUTLET 0
SC_A_0095              0.014 0.150 1.5 5.0 25 OUTLET 0
SC_A_0096              0.014 0.150 1.5 5.0 25 OUTLET 0
SC_A_0097              0.014 0.150 1.5 5.0 25 OUTLET 0
SC_A_0098              0.014 0.150 1.5 5.0 25 OUTLET 0
SC_A_0099              0.014 0.150 1.5 5.0 25 OUTLET 0
SC_A_0100              0.014 0.150 1.5 5.0 25 OUTLET 0
SC_A_0101              0.014 0.150 1.5 5.0 25 OUTLET 0
SC_A_0102              0.014 0.150 1.5 5.0 25 OUTLET 0
SC_A_0103              0.014 0.150 1.5 5.0 25 OUTLET 0
SC_A_0104              0.014 0.150 1.5 5.0 25 OUTLET 0
SC_A_0105              0.014 0.150 1.5 5.0 25 OUTLET 0
SC_A_0106              0.014 0.150 1.5 5.0 25 OUTLET 0
SC_A_0107              0.014 0.150 1.5 5.0 25 OUTLET 0
SC_A_0108              0.014 0.150 1.5 5.0 25 OUTLET 0
SC_A_0109              0.014 0.150 1.5 5.0 25 OUTLET 0
SC_A_0110              0.014 0.150 1.5 5.0 25 OUTLET 0
SC_A_0111              0.014 0.150 1.5 5.0 25 OUTLET 0
SC_A_0112              0.014 0.150 1.5 5.0 25 OUTLET 0
SC_A_0113              0.014 0.150 1.5 5.0 25 OUTLET 0
SC_A_0114              0.014 0.150 1.5 5.0 25 OUTLET 0
SC_A_0115              0.014 0.150 1.5 5.0 25 OUTLET 0
SC_A_0116              0.014 0.150 1.5 5.0 25 OUTLET 0
SC_A_0117              0.014 0.150 1.5 5.0 25 OUTLET 0
SC_A_0118              0.014 0.150 1.5 5.0 25 OUTLET 0
SC_A_0119              0.014 0.150 1.5 5.0 25 OUTLET 0
SC_A_0120              0.014 0.150 1.5 5.0 25 OUTLET 0
SC_A_0121              0.014 0.150 1.5 5.0 25 OUTLET 0
SC_A_0122              0.014 0.150 1.5 5.0 25 OUTLET 0
SC_A_0123              0.014 0.150 1.5 5.0 25 OUTLET 0
SC_A_0124              0.014 0.150 1.5 5.0 25 OUTLET 0
SC_A_0125              0.014 0.150 1.5 5.0 25 OUTLET 0
SC_A_0126              0.014 0.150 1.5 5.0 25 OUTLET 0
SC_A_0127              0.014 0.150 1.5 5.0 25 OUTLET 0
SC_A_0128              0.014 0.150 1.5 5.0 25 OUTLET 0
SC_A_0129              0.014 0.150 1.5 5.0 25 OUTLET 0
SC_A_0130              0.014 0.150 1.5 5.0 25 OUTLET 0
SC_A_0131              0.014 0.150 1.5 5.0 25 OUTLET 0
SC_A_0132              0.014 0.150 1.5 5.0 25 OUTLET 0
SC_A_0133              0.014 0.150 1.5 5.0 25 OUTLET 0
SC_A_0134              0.014 0.150 1.5 5.0 25 OUTLET 0
SC_A_0135              0.014 0.150 1.5 5.0 25 OUTLET 0
SC_A_0136              0.014 0.150 1.5 5.0 25 OUTLET 0
SC_A_0137              0.014 0.150 1.5 5.0 25 OUTLET 0
SC_A_0138              0.014 0.150 1.5 5.0 25 OUTLET 0
SC_A_0139              0.014 0.150 1.5 5.0 25 OUTLET 0
SC_A_0140              0.014 0.150 1.5 5.0 25 OUTLET 0
SC_A_0141              0.014 0.150 1.5 5.0 25 OUTLET 0
SC_A_0142              0.014 0.150 1.5 5.0 25 OUTLET 0
SC_A_0143              0.014 0.150 1.5 5.0 25 OUTLET 0
SC_A_0144              0.014 0.150 1.5 5.0 25 OUTLET 0
SC_A_0145              0.014 0.150 1.5 5.0 25 OUTLET 0
SC_A_0146              0.014 0.150 1.5 5.0 25 OUTLET 0
SC_A_0147              0.014 0.150 1.5 5.0 25 OUTLET 0
SC_A_0148              0.014 0.150 1.5 5.0 25 OUTLET 0
SC_A_0149              0.014 0.150 1.5 5.0 25 OUTLET 0
SC_A_0150              0.014 0.150 1.5 5.0 25 OUTLET 0
SC_A_0151              0.014 0.150 1.5 5.0 25 OUTLET 0
SC_A_0152              0.014 0.150 1.5 5.0 25 OUTLET 0
SC_A_0153              0.014 0.150 1.5 5.0 25 OUTLET 0
SC_A_0154              0.014 0.150 1.5 5.0 25 OUTLET 0
SC_A_0155              0.014 0.150 1.5 5.0 25 OUTLET 0
SC_A_0156              0.014 0.150 1.5 5.0 25 OUTLET 0
SC_A_0157              0.014 0.150 1.5 5.0 25 OUTLET 0
SC_A_0158              0.014 0.150 1.5 5.0 25 OUTLET 0
SC_A_0159              0.014 0.150 1.5 5.0 25 OUTLET 0
SC_A_0160              0.014 0.150 1.5 5.0 25 OUTLET 0
SC_A_0161              0.014 0.150 1.5 5.0 25 OUTLET 0
SC_A_0162              0.014 0.150 1.5 5.0 25 OUTLET 0
SC_A_0163              0.014 0.150 1.5 5.0 25 OUTLET 0
SC_A_0164              0.014 0.150 1.5 5.0 25 OUTLET 0
SC_A_0165              0.014 0.150 1.5 5.0 25 OUTLET 0
SC_A_0166              0.014 0.150 1.5 5.0 25 OUTLET 0
SC_A_0167              0.014 0.150 1.5 5.0 25 OUTLET 0
SC_A_0168              0.014 0.150 1.5 5.0 25 OUTLET 0
SC_A_0169              0.014 0.150 1.5 5.0 25 OUTLET 0
SC_A_0170              0.014 0.150 1.5 5.0 25 OUTLET 0
SC_A_0171              0.014 0.150 1.5 5.0 25 OUTLET 0
SC_A_0172              0.014 0.150 1.5 5.0 25 OUTLET 0
SC_A_0173              0.014 0.150 1.5 5.0 25 OUTLET 0
SC_A_0174              0.014 0.150 1.5 5.0 25 OUTLET 0
SC_A_0175              0.014 0.150 1.5 5.0 25 OUTLET 0
SC_A_0176              0.014 0.150 1.5 5.0 25 OUTLET 0
SC_A_0177              0.014 0.150 1.5 5.0 25 OUTLET 0
SC_A_0178              0.014 0.150 1.5 5.0 25 OUTLET 0
SC_A_0179              0.014 0.150 1.5 5.0 25 OUTLET 0
SC_A_0180              0.014 0.150 1.5 5.0 25 OUTLET 0
SC_A_0181              0.014 0.150 1.5 5.0 25 OUTLET 0
SC_A_0182              0.014 0.150 1.5 5.0 25 OUTLET 0
SC_A_0183              0.014 0.150 1.5 5.0 25 OUTLET 0
SC_A_0184              0.014 0.150 1.5 5.0 25 OUTLET 0
SC_A_0185              0.014 0.150 1.5 5.0 25 OUTLET 0
SC_A_0186              0.014 0.150 1.5 5.0 25 OUTLET 0
SC_A_0187              0.014 0.150 1.5 5.0 25 OUTLET 0
SC_A_0188              0.014 0.150 1.5 5.0 25 OUTLET 0
SC_A_0189              0.014 0.150 1.5 5.0 25 OUTLET 0
SC_A_0190              0.014 0.150 1.5 5.0 25 OUTLET 0
SC_A_0191              0.014 0.150 1.5 5.0 25 OUTLET 0
SC_A_0192              0.014 0.150 1.5 5.0 25 OUTLET 0
SC_A_0193              0.014 0.150 1.5 5.0 25 OUTLET 0
SC_A_0194              0.014 0.150 1.5 5.0 25 OUTLET 0
SC_A_0195              0.014 0.150 1.5 5.0 25 OUTLET 0
SC_A_0196              0.014 0.150 1.5 5.0 25 OUTLET 0
SC_A_0197              0.014 0.150 1.5 5.0 25 OUTLET 0
SC_A_0198              0.014 0.150 1.5 5.0 25 OUTLET 0
SC_A_0199              0.014 0.150 1.5 5.0 25 OUTLET 0
SC_A_0200              0.014 0.150 1.5 5.0 25 OUTLET 0
SC_A_0201              0.014 0.150 1.5 5.0 25 OUTLET 0
SC_A_0202              0.014 0.150 1.5 5.0 25 OUTLET 0
SC_A_0203              0.014 0.150 1.5 5.0 25 OUTLET 0
SC_A_0204              0.014 0.150 1.5 5.0 25 OUTLET 0
SC_A_0205              0.014 0.150 1.5 5.0 25 OUTLET 0
SC_A_0206              0.014 0.150 1.5 5.0 25 OUTLET 0
SC_A_0207              0.014 0.150 1.5 5.0 25 OUTLET 0
SC_A_0208              0.014 0.150 1.5 5.0 25 OUTLET 0

[INFILTRATION]
;;Subcatchment          Curve Number  Dstore  Init.Moist
SC_A_0001              79.0 0.5 5
SC_A_0002              79.0 0.5 5
SC_A_0003              79.0 0.5 5
SC_A_0004              79.0 0.5 5
SC_A_0005              79.0 0.5 5
SC_A_0006              79.0 0.5 5
SC_A_0007              79.0 0.5 5
SC_A_0008              79.0 0.5 5
SC_A_0009              79.0 0.5 5
SC_A_0010              79.0 0.5 5
SC_A_0011              79.0 0.5 5
SC_A_0012              79.0 0.5 5
SC_A_0013              79.0 0.5 5
SC_A_0014              79.0 0.5 5
SC_A_0015              79.0 0.5 5
SC_A_0016              79.0 0.5 5
SC_A_0017              79.0 0.5 5
SC_A_0018              79.0 0.5 5
SC_A_0019              79.0 0.5 5
SC_A_0020              79.0 0.5 5
SC_A_0021              79.0 0.5 5
SC_A_0022              79.0 0.5 5
SC_A_0023              79.0 0.5 5
SC_A_0024              79.0 0.5 5
SC_A_0025              79.0 0.5 5
SC_A_0026              79.0 0.5 5
SC_A_0027              79.0 0.5 5
SC_A_0028              79.0 0.5 5
SC_A_0029              79.0 0.5 5
SC_A_0030              79.0 0.5 5
SC_A_0031              79.0 0.5 5
SC_A_0032              79.0 0.5 5
SC_A_0033              79.0 0.5 5
SC_A_0034              79.0 0.5 5
SC_A_0035              79.0 0.5 5
SC_A_0036              79.0 0.5 5
SC_A_0037              79.0 0.5 5
SC_A_0038              79.0 0.5 5
SC_A_0039              79.0 0.5 5
SC_A_0040              79.0 0.5 5
SC_A_0041              79.0 0.5 5
SC_A_0042              79.0 0.5 5
SC_A_0043              79.0 0.5 5
SC_A_0044              79.0 0.5 5
SC_A_0045              79.0 0.5 5
SC_A_0046              79.0 0.5 5
SC_A_0047              79.0 0.5 5
SC_A_0048              79.0 0.5 5
SC_A_0049              79.0 0.5 5
SC_A_0050              79.0 0.5 5
SC_A_0051              79.0 0.5 5
SC_A_0052              79.0 0.5 5
SC_A_0053              79.0 0.5 5
SC_A_0054              79.0 0.5 5
SC_A_0055              79.0 0.5 5
SC_A_0056              79.0 0.5 5
SC_A_0057              79.0 0.5 5
SC_A_0058              79.0 0.5 5
SC_A_0059              79.0 0.5 5
SC_A_0060              79.0 0.5 5
SC_A_0061              79.0 0.5 5
SC_A_0062              79.0 0.5 5
SC_A_0063              79.0 0.5 5
SC_A_0064              79.0 0.5 5
SC_A_0065              79.0 0.5 5
SC_A_0066              79.0 0.5 5
SC_A_0067              79.0 0.5 5
SC_A_0068              79.0 0.5 5
SC_A_0069              79.0 0.5 5
SC_A_0070              79.0 0.5 5
SC_A_0071              79.0 0.5 5
SC_A_0072              79.0 0.5 5
SC_A_0073              79.0 0.5 5
SC_A_0074              79.0 0.5 5
SC_A_0075              79.0 0.5 5
SC_A_0076              79.0 0.5 5
SC_A_0077              79.0 0.5 5
SC_A_0078              79.0 0.5 5
SC_A_0079              79.0 0.5 5
SC_A_0080              79.0 0.5 5
SC_A_0081              79.0 0.5 5
SC_A_0082              79.0 0.5 5
SC_A_0083              79.0 0.5 5
SC_A_0084              79.0 0.5 5
SC_A_0085              79.0 0.5 5
SC_A_0086              79.0 0.5 5
SC_A_0087              79.0 0.5 5
SC_A_0088              79.0 0.5 5
SC_A_0089              79.0 0.5 5
SC_A_0090              79.0 0.5 5
SC_A_0091              79.0 0.5 5
SC_A_0092              79.0 0.5 5
SC_A_0093              79.0 0.5 5
SC_A_0094              79.0 0.5 5
SC_A_0095              79.0 0.5 5
SC_A_0096              79.0 0.5 5
SC_A_0097              79.0 0.5 5
SC_A_0098              79.0 0.5 5
SC_A_0099              79.0 0.5 5
SC_A_0100              79.0 0.5 5
SC_A_0101              79.0 0.5 5
SC_A_0102              79.0 0.5 5
SC_A_0103              79.0 0.5 5
SC_A_0104              79.0 0.5 5
SC_A_0105              79.0 0.5 5
SC_A_0106              79.0 0.5 5
SC_A_0107              79.0 0.5 5
SC_A_0108              79.0 0.5 5
SC_A_0109              79.0 0.5 5
SC_A_0110              79.0 0.5 5
SC_A_0111              79.0 0.5 5
SC_A_0112              79.0 0.5 5
SC_A_0113              79.0 0.5 5
SC_A_0114              79.0 0.5 5
SC_A_0115              79.0 0.5 5
SC_A_0116              79.0 0.5 5
SC_A_0117              79.0 0.5 5
SC_A_0118              79.0 0.5 5
SC_A_0119              79.0 0.5 5
SC_A_0120              79.0 0.5 5
SC_A_0121              79.0 0.5 5
SC_A_0122              79.0 0.5 5
SC_A_0123              79.0 0.5 5
SC_A_0124              79.0 0.5 5
SC_A_0125              79.0 0.5 5
SC_A_0126              79.0 0.5 5
SC_A_0127              79.0 0.5 5
SC_A_0128              79.0 0.5 5
SC_A_0129              79.0 0.5 5
SC_A_0130              79.0 0.5 5
SC_A_0131              79.0 0.5 5
SC_A_0132              79.0 0.5 5
SC_A_0133              79.0 0.5 5
SC_A_0134              79.0 0.5 5
SC_A_0135              79.0 0.5 5
SC_A_0136              79.0 0.5 5
SC_A_0137              79.0 0.5 5
SC_A_0138              79.0 0.5 5
SC_A_0139              79.0 0.5 5
SC_A_0140              79.0 0.5 5
SC_A_0141              79.0 0.5 5
SC_A_0142              79.0 0.5 5
SC_A_0143              79.0 0.5 5
SC_A_0144              79.0 0.5 5
SC_A_0145              79.0 0.5 5
SC_A_0146              79.0 0.5 5
SC_A_0147              79.0 0.5 5
SC_A_0148              79.0 0.5 5
SC_A_0149              79.0 0.5 5
SC_A_0150              79.0 0.5 5
SC_A_0151              79.0 0.5 5
SC_A_0152              79.0 0.5 5
SC_A_0153              79.0 0.5 5
SC_A_0154              79.0 0.5 5
SC_A_0155              79.0 0.5 5
SC_A_0156              79.0 0.5 5
SC_A_0157              79.0 0.5 5
SC_A_0158              79.0 0.5 5
SC_A_0159              79.0 0.5 5
SC_A_0160              79.0 0.5 5
SC_A_0161              79.0 0.5 5
SC_A_0162              79.0 0.5 5
SC_A_0163              79.0 0.5 5
SC_A_0164              79.0 0.5 5
SC_A_0165              79.0 0.5 5
SC_A_0166              79.0 0.5 5
SC_A_0167              79.0 0.5 5
SC_A_0168              79.0 0.5 5
SC_A_0169              79.0 0.5 5
SC_A_0170              79.0 0.5 5
SC_A_0171              79.0 0.5 5
SC_A_0172              79.0 0.5 5
SC_A_0173              79.0 0.5 5
SC_A_0174              79.0 0.5 5
SC_A_0175              79.0 0.5 5
SC_A_0176              79.0 0.5 5
SC_A_0177              79.0 0.5 5
SC_A_0178              79.0 0.5 5
SC_A_0179              79.0 0.5 5
SC_A_0180              79.0 0.5 5
SC_A_0181              79.0 0.5 5
SC_A_0182              79.0 0.5 5
SC_A_0183              79.0 0.5 5
SC_A_0184              79.0 0.5 5
SC_A_0185              79.0 0.5 5
SC_A_0186              79.0 0.5 5
SC_A_0187              79.0 0.5 5
SC_A_0188              79.0 0.5 5
SC_A_0189              79.0 0.5 5
SC_A_0190              79.0 0.5 5
SC_A_0191              79.0 0.5 5
SC_A_0192              79.0 0.5 5
SC_A_0193              79.0 0.5 5
SC_A_0194              79.0 0.5 5
SC_A_0195              79.0 0.5 5
SC_A_0196              79.0 0.5 5
SC_A_0197              79.0 0.5 5
SC_A_0198              79.0 0.5 5
SC_A_0199              79.0 0.5 5
SC_A_0200              79.0 0.5 5
SC_A_0201              79.0 0.5 5
SC_A_0202              79.0 0.5 5
SC_A_0203              79.0 0.5 5
SC_A_0204              79.0 0.5 5
SC_A_0205              79.0 0.5 5
SC_A_0206              79.0 0.5 5
SC_A_0207              79.0 0.5 5
SC_A_0208              79.0 0.5 5

[JUNCTIONS]
;;Name                 Elevation MaxDepth InitDepth SurDepth Aponded
N_A_0001                  113.264 10 0 0 YES
N_A_0003                  111.079 10 0 0 YES
N_A_0004                  103.989 10 0 0 YES
N_A_0005                  109.449 10 0 0 YES
N_A_0006                   96.213 10 0 0 YES
N_A_0007                  105.007 10 0 0 YES
N_A_0008                   88.824 10 0 0 YES
N_A_0009                   89.016 10 0 0 YES
N_A_0010                   93.866 10 0 0 YES
N_A_0011                   81.775 10 0 0 YES
N_A_0012                   81.200 10 0 0 YES
N_A_0013                   79.296 10 0 0 YES
N_A_0016                   71.331 10 0 0 YES
N_A_0017                   63.086 10 0 0 YES
N_A_0018                   56.699 10 0 0 YES
N_A_0019                   54.322 10 0 0 YES
N_A_0020                   58.663 10 0 0 YES
N_A_0021                   56.262 10 0 0 YES
N_A_0023                  118.899 10 0 0 YES
N_A_0024                  116.566 10 0 0 YES
N_A_0025                  112.766 10 0 0 YES
N_A_0026                  107.723 10 0 0 YES
N_A_0027                  101.902 10 0 0 YES
N_A_0028                  102.055 10 0 0 YES
N_A_0030                  108.549 10 0 0 YES
N_A_0031                  112.371 10 0 0 YES
N_A_0033                  116.560 10 0 0 YES
N_A_0035                  117.484 10 0 0 YES
N_A_0037                  123.538 10 0 0 YES
N_A_0039                  118.159 10 0 0 YES
N_A_0040                  115.670 10 0 0 YES
N_A_0041                  111.722 10 0 0 YES
N_A_0044                   96.908 10 0 0 YES
N_A_0045                  121.135 10 0 0 YES
N_A_0046                  102.449 10 0 0 YES
N_A_0047                  113.239 10 0 0 YES
N_A_0048                  111.694 10 0 0 YES
N_A_0049                  117.244 10 0 0 YES
N_A_0050                  115.538 10 0 0 YES
N_A_0051                  121.212 10 0 0 YES
N_A_0052                  118.157 10 0 0 YES
N_A_0053                  110.211 10 0 0 YES
N_A_0054                   76.959 10 0 0 YES
N_A_0055                  106.616 10 0 0 YES
N_A_0056                   89.776 10 0 0 YES
N_A_0057                   92.402 10 0 0 YES
N_A_0058                   60.480 10 0 0 YES
N_A_0059                   55.210 10 0 0 YES
N_A_0060                   54.141 10 0 0 YES
N_A_0061                   47.144 10 0 0 YES
N_A_0062                   55.460 10 0 0 YES
N_A_0063                   55.438 10 0 0 YES
N_A_0064                   45.684 10 0 0 YES
N_A_0066                   54.601 10 0 0 YES
N_A_0067                   54.543 10 0 0 YES
N_A_0068                   45.462 10 0 0 YES
N_A_0069                   49.975 10 0 0 YES
N_A_0070                   40.940 10 0 0 YES
N_A_0071                   46.520 10 0 0 YES
N_A_0073                   46.273 10 0 0 YES
N_A_0075                   31.917 10 0 0 YES
N_A_0076                   30.389 10 0 0 YES
N_A_0077                   29.454 10 0 0 YES
N_A_0078                   49.633 10 0 0 YES
N_A_0079                   54.403 10 0 0 YES
N_A_0080                   55.376 10 0 0 YES
N_A_0083                   52.861 10 0 0 YES
N_A_0084                   51.343 10 0 0 YES
N_A_0085                   53.278 10 0 0 YES
N_A_0087                   56.732 10 0 0 YES
N_A_0088                   56.702 10 0 0 YES
N_A_0089                   60.393 10 0 0 YES
N_A_0090                   58.618 10 0 0 YES
N_A_0091                   59.308 10 0 0 YES
N_A_0092                   56.380 10 0 0 YES
N_A_0094                   64.650 10 0 0 YES
N_A_0095                   63.462 10 0 0 YES
N_A_0096                   70.337 10 0 0 YES
N_A_0097                   70.121 10 0 0 YES
N_A_0100                   82.657 10 0 0 YES
N_A_0102                   77.195 10 0 0 YES
N_A_0103                   38.670 10 0 0 YES
N_A_0104                   42.338 10 0 0 YES
N_A_0106                   45.611 10 0 0 YES
N_A_0107                   46.786 10 0 0 YES
N_A_0108                   45.455 10 0 0 YES
N_A_0110                   54.603 10 0 0 YES
N_A_0111                   54.234 10 0 0 YES
N_A_0112                   50.736 10 0 0 YES
N_A_0113                   45.100 10 0 0 YES
N_A_0114                   43.957 10 0 0 YES
N_A_0115                   32.645 10 0 0 YES
N_A_0116                   36.072 10 0 0 YES
N_A_0117                   44.748 10 0 0 YES
N_A_0118                   33.012 10 0 0 YES
N_A_0119                   40.288 10 0 0 YES
N_A_0120                   37.495 10 0 0 YES
N_A_0121                   37.495 10 0 0 YES
N_A_0122                   47.394 10 0 0 YES
N_A_0123                   39.380 10 0 0 YES
N_A_0124                   50.390 10 0 0 YES
N_A_0126                   51.375 10 0 0 YES
N_A_0127                   45.813 10 0 0 YES
N_A_0128                   53.586 10 0 0 YES
N_A_0129                   49.535 10 0 0 YES
N_A_0130                   53.165 10 0 0 YES
N_A_0131                   51.665 10 0 0 YES
N_A_0132                   51.704 10 0 0 YES
N_A_0133                   55.444 10 0 0 YES
N_A_0134                   54.984 10 0 0 YES
N_A_0135                   53.672 10 0 0 YES
N_A_0136                   55.702 10 0 0 YES
N_A_0137                   60.202 10 0 0 YES
N_A_0138                   58.254 10 0 0 YES
N_A_0141                   70.904 10 0 0 YES
N_A_0143                   84.388 10 0 0 YES
N_A_0144                   55.242 10 0 0 YES
N_A_0145                   53.805 10 0 0 YES
N_A_0146                   55.389 10 0 0 YES
N_A_0147                   51.713 10 0 0 YES
N_A_0149                   21.871 10 0 0 YES
N_A_0150                   30.225 10 0 0 YES
N_A_0151                   27.665 10 0 0 YES
N_A_0152                   38.037 10 0 0 YES
N_A_0153                   35.424 10 0 0 YES
N_A_0156                   43.240 10 0 0 YES
N_A_0158                   42.988 10 0 0 YES
N_A_0159                   42.041 10 0 0 YES
N_A_0160                   47.121 10 0 0 YES
N_A_0161                   46.580 10 0 0 YES
N_A_0163                   54.474 10 0 0 YES
N_A_0164                   56.054 10 0 0 YES
N_A_0166                   62.237 10 0 0 YES
N_A_0167                   62.375 10 0 0 YES
N_A_0169                   72.791 10 0 0 YES
N_A_0170                   73.233 10 0 0 YES
N_A_0171                   85.418 10 0 0 YES
N_A_0173                   95.081 10 0 0 YES
N_A_0175                   53.735 10 0 0 YES
N_A_0176                   47.805 10 0 0 YES
N_A_0177                   55.131 10 0 0 YES
N_A_0178                   50.837 10 0 0 YES
N_A_0179                   57.794 10 0 0 YES
N_A_0180                   57.549 10 0 0 YES
N_A_0181                   61.402 10 0 0 YES
N_A_0182                   62.732 10 0 0 YES
N_A_0183                   59.162 10 0 0 YES
N_A_0184                   78.703 10 0 0 YES
N_A_0185                   74.718 10 0 0 YES
N_A_0186                   97.148 10 0 0 YES
N_A_0187                   96.645 10 0 0 YES
N_A_0188                   90.767 10 0 0 YES
N_A_0189                   47.504 10 0 0 YES
N_A_0191                   46.414 10 0 0 YES
N_A_0192                  103.529 10 0 0 YES
N_A_0194                  106.566 10 0 0 YES
N_A_0196                   79.553 10 0 0 YES
N_A_0197                   47.298 10 0 0 YES
N_A_0198                   50.583 10 0 0 YES
N_A_0199                   49.396 10 0 0 YES

[OUTFALLS]
;;Name                 Elevation Type       Stage Data        Gated Route To
N_A_0002                  107.105 FREE       NO
N_A_0014                   79.296 FREE       NO
N_A_0015                   68.919 FREE       NO
N_A_0022                   45.738 FREE       NO
N_A_0029                  107.190 FREE       NO
N_A_0032                  111.363 FREE       NO
N_A_0034                  116.150 FREE       NO
N_A_0036                  117.386 FREE       NO
N_A_0038                  121.115 FREE       NO
N_A_0042                  100.910 FREE       NO
N_A_0043                   88.613 FREE       NO
N_A_0065                   45.684 FREE       NO
N_A_0072                   39.073 FREE       NO
N_A_0074                   30.917 FREE       NO
N_A_0081                   54.652 FREE       NO
N_A_0082                   50.984 FREE       NO
N_A_0086                   55.689 FREE       NO
N_A_0093                   47.357 FREE       NO
N_A_0098                   70.121 FREE       NO
N_A_0099                   79.110 FREE       NO
N_A_0101                   76.513 FREE       NO
N_A_0105                   30.912 FREE       NO
N_A_0109                   31.622 FREE       NO
N_A_0125                   42.041 FREE       NO
N_A_0139                   58.254 FREE       NO
N_A_0140                   65.104 FREE       NO
N_A_0142                   70.572 FREE       NO
N_A_0148                   18.442 FREE       NO
N_A_0154                   31.364 FREE       NO
N_A_0155                   36.293 FREE       NO
N_A_0157                   43.191 FREE       NO
N_A_0162                   49.256 FREE       NO
N_A_0165                   62.057 FREE       NO
N_A_0168                   72.597 FREE       NO
N_A_0172                   94.994 FREE       NO
N_A_0174                   95.081 FREE       NO
N_A_0190                   44.277 FREE       NO
N_A_0193                   25.919 FREE       NO
N_A_0195                   13.172 FREE       NO
N_A_0200                   41.818 FREE       NO

[CONDUITS]
;;Name                 From Node             To Node               Length Roughness InOffset OutOffset InitFlow MaxFlow
L_A_0001               N_A_0001             N_A_0002                198.567 0.013 0 0 0 0
L_A_0002               N_A_0003             N_A_0004                211.833 0.013 0 0 0 0
L_A_0003               N_A_0005             N_A_0006                188.048 0.013 0 0 0 0
L_A_0004               N_A_0007             N_A_0008                189.502 0.013 0 0 0 0
L_A_0005               N_A_0009             N_A_0008                  2.928 0.013 0 0 0 0
L_A_0006               N_A_0010             N_A_0011                178.291 0.013 0 0 0 0
L_A_0007               N_A_0012             N_A_0013                164.495 0.013 0 0 0 0
L_A_0008               N_A_0013             N_A_0014                  2.098 0.013 0 0 0 0
L_A_0009               N_A_0016             N_A_0015                149.969 0.013 0 0 0 0
L_A_0010               N_A_0017             N_A_0018                171.949 0.013 0 0 0 0
L_A_0011               N_A_0018             N_A_0019                 64.247 0.013 0 0 0 0
L_A_0012               N_A_0020             N_A_0018                104.017 0.013 0 0 0 0
L_A_0013               N_A_0021             N_A_0022                219.602 0.013 0 0 0 0
L_A_0014               N_A_0023             N_A_0024                 40.674 0.013 0 0 0 0
L_A_0015               N_A_0024             N_A_0025                 70.661 0.013 0 0 0 0
L_A_0016               N_A_0025             N_A_0026                 73.384 0.013 0 0 0 0
L_A_0017               N_A_0026             N_A_0027                 71.716 0.013 0 0 0 0
L_A_0018               N_A_0028             N_A_0027                167.452 0.013 0 0 0 0
L_A_0019               N_A_0030             N_A_0029                 24.694 0.013 0 0 0 0
L_A_0020               N_A_0031             N_A_0032                 28.818 0.013 0 0 0 0
L_A_0021               N_A_0033             N_A_0034                  8.917 0.013 0 0 0 0
L_A_0022               N_A_0035             N_A_0036                 36.021 0.013 0 0 0 0
L_A_0023               N_A_0037             N_A_0038                242.075 0.013 0 0 0 0
L_A_0024               N_A_0039             N_A_0024                178.154 0.013 0 0 0 0
L_A_0025               N_A_0040             N_A_0025                190.682 0.013 0 0 0 0
L_A_0026               N_A_0041             N_A_0026                206.035 0.013 0 0 0 0
L_A_0027               N_A_0027             N_A_0042                218.668 0.013 0 0 0 0
L_A_0028               N_A_0044             N_A_0043                411.239 0.013 0 0 0 0
L_A_0029               N_A_0045             N_A_0046                485.379 0.013 0 0 0 0
L_A_0030               N_A_0047             N_A_0048                299.108 0.013 0 0 0 0
L_A_0031               N_A_0049             N_A_0050                331.633 0.013 0 0 0 0
L_A_0032               N_A_0051             N_A_0052                358.877 0.013 0 0 0 0
L_A_0033               N_A_0053             N_A_0054                344.742 0.013 0 0 0 0
L_A_0034               N_A_0055             N_A_0056                197.659 0.013 0 0 0 0
L_A_0035               N_A_0057             N_A_0058                298.275 0.013 0 0 0 0
L_A_0036               N_A_0059             N_A_0060                 52.902 0.013 0 0 0 0
L_A_0037               N_A_0060             N_A_0061                139.083 0.013 0 0 0 0
L_A_0038               N_A_0062             N_A_0063                 40.408 0.013 0 0 0 0
L_A_0039               N_A_0063             N_A_0064                144.397 0.013 0 0 0 0
L_A_0040               N_A_0064             N_A_0065                  2.290 0.013 0 0 0 0
L_A_0041               N_A_0066             N_A_0067                 40.731 0.013 0 0 0 0
L_A_0042               N_A_0067             N_A_0068                150.080 0.013 0 0 0 0
L_A_0043               N_A_0069             N_A_0070                213.219 0.013 0 0 0 0
L_A_0044               N_A_0071             N_A_0072                218.914 0.013 0 0 0 0
L_A_0045               N_A_0073             N_A_0074                234.202 0.013 0 0 0 0
L_A_0046               N_A_0075             N_A_0074                 70.002 0.013 0 0 0 0
L_A_0047               N_A_0075             N_A_0076                 72.296 0.013 0 0 0 0
L_A_0048               N_A_0076             N_A_0077                 75.796 0.013 0 0 0 0
L_A_0049               N_A_0078             N_A_0071                 66.492 0.013 0 0 0 0
L_A_0050               N_A_0079             N_A_0069                 68.616 0.013 0 0 0 0
L_A_0051               N_A_0080             N_A_0067                 58.385 0.013 0 0 0 0
L_A_0052               N_A_0063             N_A_0081                 66.125 0.013 0 0 0 0
L_A_0053               N_A_0060             N_A_0082                 64.090 0.013 0 0 0 0
L_A_0054               N_A_0083             N_A_0084                202.895 0.013 0 0 0 0
L_A_0055               N_A_0085             N_A_0084                 69.691 0.013 0 0 0 0
L_A_0056               N_A_0087             N_A_0086                262.898 0.013 0 0 0 0
L_A_0057               N_A_0087             N_A_0088                 70.315 0.013 0 0 0 0
L_A_0058               N_A_0089             N_A_0090                339.546 0.013 0 0 0 0
L_A_0059               N_A_0091             N_A_0087                 63.535 0.013 0 0 0 0
L_A_0060               N_A_0092             N_A_0084                 67.957 0.013 0 0 0 0
L_A_0061               N_A_0084             N_A_0093                 75.244 0.013 0 0 0 0
L_A_0062               N_A_0094             N_A_0095                325.855 0.013 0 0 0 0
L_A_0063               N_A_0096             N_A_0097                313.337 0.013 0 0 0 0
L_A_0064               N_A_0097             N_A_0098                  2.329 0.013 0 0 0 0
L_A_0065               N_A_0100             N_A_0099                276.182 0.013 0 0 0 0
L_A_0066               N_A_0102             N_A_0101                184.648 0.013 0 0 0 0
L_A_0067               N_A_0103             N_A_0076                186.717 0.013 0 0 0 0
L_A_0068               N_A_0104             N_A_0075                184.194 0.013 0 0 0 0
L_A_0069               N_A_0075             N_A_0105                  2.254 0.013 0 0 0 0
L_A_0070               N_A_0106             N_A_0074                171.519 0.013 0 0 0 0
L_A_0071               N_A_0107             N_A_0108                 69.408 0.013 0 0 0 0
L_A_0072               N_A_0108             N_A_0109                163.885 0.013 0 0 0 0
L_A_0073               N_A_0110             N_A_0108                171.749 0.013 0 0 0 0
L_A_0074               N_A_0111             N_A_0112                 65.016 0.013 0 0 0 0
L_A_0075               N_A_0113             N_A_0114                 64.785 0.013 0 0 0 0
L_A_0076               N_A_0115             N_A_0109                 66.732 0.013 0 0 0 0
L_A_0077               N_A_0116             N_A_0109                 72.324 0.013 0 0 0 0
L_A_0078               N_A_0117             N_A_0118                213.507 0.013 0 0 0 0
L_A_0079               N_A_0119             N_A_0120                 63.362 0.013 0 0 0 0
L_A_0080               N_A_0120             N_A_0121                  2.193 0.013 0 0 0 0
L_A_0081               N_A_0122             N_A_0123                147.558 0.013 0 0 0 0
L_A_0082               N_A_0124             N_A_0125                145.582 0.013 0 0 0 0
L_A_0083               N_A_0126             N_A_0127                148.642 0.013 0 0 0 0
L_A_0084               N_A_0128             N_A_0129                150.756 0.013 0 0 0 0
L_A_0085               N_A_0130             N_A_0131                146.700 0.013 0 0 0 0
L_A_0086               N_A_0132             N_A_0131                  2.778 0.013 0 0 0 0
L_A_0087               N_A_0133             N_A_0134                144.474 0.013 0 0 0 0
L_A_0088               N_A_0134             N_A_0135                  3.046 0.013 0 0 0 0
L_A_0089               N_A_0136             N_A_0135                  5.243 0.013 0 0 0 0
L_A_0090               N_A_0137             N_A_0138                153.420 0.013 0 0 0 0
L_A_0091               N_A_0138             N_A_0139                  2.470 0.013 0 0 0 0
L_A_0092               N_A_0141             N_A_0140                156.997 0.013 0 0 0 0
L_A_0093               N_A_0143             N_A_0142                157.469 0.013 0 0 0 0
L_A_0094               N_A_0144             N_A_0145                 83.978 0.013 0 0 0 0
L_A_0095               N_A_0146             N_A_0147                 97.301 0.013 0 0 0 0
L_A_0096               N_A_0149             N_A_0148                 93.504 0.013 0 0 0 0
L_A_0097               N_A_0150             N_A_0149                 69.126 0.013 0 0 0 0
L_A_0098               N_A_0150             N_A_0151                 90.053 0.013 0 0 0 0
L_A_0099               N_A_0152             N_A_0150                114.134 0.013 0 0 0 0
L_A_0100               N_A_0153             N_A_0149                 99.094 0.013 0 0 0 0
L_A_0101               N_A_0121             N_A_0154                254.241 0.013 0 0 0 0
L_A_0102               N_A_0123             N_A_0155                314.099 0.013 0 0 0 0
L_A_0103               N_A_0156             N_A_0157                 20.418 0.013 0 0 0 0
L_A_0104               N_A_0158             N_A_0159                234.982 0.013 0 0 0 0
L_A_0105               N_A_0159             N_A_0125                  2.373 0.013 0 0 0 0
L_A_0106               N_A_0160             N_A_0161                 25.288 0.013 0 0 0 0
L_A_0107               N_A_0161             N_A_0127                265.391 0.013 0 0 0 0
L_A_0108               N_A_0129             N_A_0162                312.229 0.013 0 0 0 0
L_A_0109               N_A_0163             N_A_0132                246.049 0.013 0 0 0 0
L_A_0110               N_A_0164             N_A_0136                234.553 0.013 0 0 0 0
L_A_0111               N_A_0136             N_A_0135                  5.243 0.013 0 0 0 0
L_A_0112               N_A_0134             N_A_0135                  3.046 0.013 0 0 0 0
L_A_0113               N_A_0166             N_A_0165                 10.112 0.013 0 0 0 0
L_A_0114               N_A_0167             N_A_0139                158.344 0.013 0 0 0 0
L_A_0115               N_A_0169             N_A_0168                  5.071 0.013 0 0 0 0
L_A_0116               N_A_0170             N_A_0141                 85.497 0.013 0 0 0 0
L_A_0117               N_A_0171             N_A_0143                 83.066 0.013 0 0 0 0
L_A_0118               N_A_0173             N_A_0172                  2.031 0.013 0 0 0 0
L_A_0119               N_A_0044             N_A_0174                 46.325 0.013 0 0 0 0
L_A_0120               N_A_0175             N_A_0176                133.759 0.013 0 0 0 0
L_A_0121               N_A_0177             N_A_0178                131.191 0.013 0 0 0 0
L_A_0122               N_A_0179             N_A_0180                 27.099 0.013 0 0 0 0
L_A_0123               N_A_0180             N_A_0019                 95.857 0.013 0 0 0 0
L_A_0124               N_A_0181             N_A_0180                 58.231 0.013 0 0 0 0
L_A_0125               N_A_0182             N_A_0183                120.583 0.013 0 0 0 0
L_A_0126               N_A_0184             N_A_0185                 91.334 0.013 0 0 0 0
L_A_0127               N_A_0186             N_A_0187                 16.804 0.013 0 0 0 0
L_A_0128               N_A_0188             N_A_0009                 45.813 0.013 0 0 0 0
L_A_0129               N_A_0009             N_A_0008                  2.928 0.013 0 0 0 0
L_A_0130               N_A_0189             N_A_0190                 62.826 0.013 0 0 0 0
L_A_0131               N_A_0052             N_A_0050                 80.641 0.013 0 0 0 0
L_A_0132               N_A_0050             N_A_0048                 70.233 0.013 0 0 0 0
L_A_0133               N_A_0048             N_A_0046                 70.690 0.013 0 0 0 0
L_A_0134               N_A_0046             N_A_0056                 71.051 0.013 0 0 0 0
L_A_0135               N_A_0056             N_A_0100                 70.935 0.013 0 0 0 0
L_A_0136               N_A_0100             N_A_0102                 52.998 0.013 0 0 0 0
L_A_0137               N_A_0102             N_A_0054                 29.982 0.013 0 0 0 0
L_A_0138               N_A_0054             N_A_0097                 65.230 0.013 0 0 0 0
L_A_0139               N_A_0097             N_A_0095                 71.684 0.013 0 0 0 0
L_A_0140               N_A_0095             N_A_0058                 44.768 0.013 0 0 0 0
L_A_0141               N_A_0058             N_A_0090                 30.671 0.013 0 0 0 0
L_A_0142               N_A_0090             N_A_0088                 71.844 0.013 0 0 0 0
L_A_0143               N_A_0088             N_A_0085                 72.832 0.013 0 0 0 0
L_A_0144               N_A_0085             N_A_0191                 72.194 0.013 0 0 0 0
L_A_0145               N_A_0192             N_A_0028                 37.439 0.013 0 0 0 0
L_A_0146               N_A_0028             N_A_0044                 70.003 0.013 0 0 0 0
L_A_0147               N_A_0044             N_A_0143                 76.602 0.013 0 0 0 0
L_A_0148               N_A_0143             N_A_0141                 73.481 0.013 0 0 0 0
L_A_0149               N_A_0141             N_A_0138                 71.340 0.013 0 0 0 0
L_A_0150               N_A_0138             N_A_0135                 70.409 0.013 0 0 0 0
L_A_0151               N_A_0135             N_A_0131                 74.904 0.013 0 0 0 0
L_A_0152               N_A_0131             N_A_0129                 67.400 0.013 0 0 0 0
L_A_0153               N_A_0129             N_A_0127                 73.279 0.013 0 0 0 0
L_A_0154               N_A_0127             N_A_0159                 70.533 0.013 0 0 0 0
L_A_0155               N_A_0159             N_A_0123                 74.591 0.013 0 0 0 0
L_A_0156               N_A_0123             N_A_0120                 69.701 0.013 0 0 0 0
L_A_0157               N_A_0120             N_A_0151                133.213 0.013 0 0 0 0
L_A_0158               N_A_0151             N_A_0193                 20.215 0.013 0 0 0 0
L_A_0159               N_A_0194             N_A_0004                 61.304 0.013 0 0 0 0
L_A_0160               N_A_0004             N_A_0187                 68.442 0.013 0 0 0 0
L_A_0161               N_A_0187             N_A_0006                 33.221 0.013 0 0 0 0
L_A_0162               N_A_0006             N_A_0008                 71.088 0.013 0 0 0 0
L_A_0163               N_A_0008             N_A_0011                 73.804 0.013 0 0 0 0
L_A_0164               N_A_0011             N_A_0013                 53.557 0.013 0 0 0 0
L_A_0165               N_A_0013             N_A_0185                 69.127 0.013 0 0 0 0
L_A_0166               N_A_0185             N_A_0016                 27.853 0.013 0 0 0 0
L_A_0167               N_A_0016             N_A_0183                125.863 0.013 0 0 0 0
L_A_0168               N_A_0183             N_A_0019                 68.220 0.013 0 0 0 0
L_A_0169               N_A_0019             N_A_0178                 78.205 0.013 0 0 0 0
L_A_0170               N_A_0178             N_A_0176                 77.162 0.013 0 0 0 0
L_A_0171               N_A_0061             N_A_0064                 61.240 0.013 0 0 0 0
L_A_0172               N_A_0064             N_A_0068                 65.652 0.013 0 0 0 0
L_A_0173               N_A_0068             N_A_0070                112.067 0.013 0 0 0 0
L_A_0174               N_A_0070             N_A_0077                339.925 0.013 0 0 0 0
L_A_0175               N_A_0077             N_A_0195                177.509 0.013 0 0 0 0
L_A_0176               N_A_0196             N_A_0145                429.742 0.013 0 0 0 0
L_A_0177               N_A_0145             N_A_0147                 71.450 0.013 0 0 0 0
L_A_0178               N_A_0147             N_A_0112                 69.361 0.013 0 0 0 0
L_A_0179               N_A_0112             N_A_0114                147.802 0.013 0 0 0 0
L_A_0180               N_A_0114             N_A_0116                154.514 0.013 0 0 0 0
L_A_0181               N_A_0116             N_A_0118                 72.946 0.013 0 0 0 0
L_A_0182               N_A_0118             N_A_0151                 70.026 0.013 0 0 0 0
L_A_0183               N_A_0176             N_A_0022                 53.233 0.013 0 0 0 0
L_A_0184               N_A_0191             N_A_0022                 68.425 0.013 0 0 0 0
L_A_0185               N_A_0197             N_A_0191                 63.634 0.013 0 0 0 0
L_A_0186               N_A_0198             N_A_0190                129.796 0.013 0 0 0 0
L_A_0187               N_A_0199             N_A_0200                127.557 0.013 0 0 0 0

[XSECTIONS]
;;Link                 Shape        Geom1 Geom2 Geom3 Geom4 Barrels Culvert
L_A_0001               CIRCULAR     0.600 0 0 0 1
L_A_0002               CIRCULAR     0.600 0 0 0 1
L_A_0003               CIRCULAR     0.600 0 0 0 1
L_A_0004               CIRCULAR     0.600 0 0 0 1
L_A_0005               CIRCULAR     0.600 0 0 0 1
L_A_0006               CIRCULAR     0.600 0 0 0 1
L_A_0007               CIRCULAR     0.600 0 0 0 1
L_A_0008               CIRCULAR     0.600 0 0 0 1
L_A_0009               CIRCULAR     0.600 0 0 0 1
L_A_0010               CIRCULAR     0.600 0 0 0 1
L_A_0011               CIRCULAR     0.600 0 0 0 1
L_A_0012               CIRCULAR     0.600 0 0 0 1
L_A_0013               CIRCULAR     0.600 0 0 0 1
L_A_0014               CIRCULAR     0.600 0 0 0 1
L_A_0015               CIRCULAR     0.600 0 0 0 1
L_A_0016               CIRCULAR     0.600 0 0 0 1
L_A_0017               CIRCULAR     0.600 0 0 0 1
L_A_0018               CIRCULAR     0.600 0 0 0 1
L_A_0019               CIRCULAR     0.600 0 0 0 1
L_A_0020               CIRCULAR     0.600 0 0 0 1
L_A_0021               CIRCULAR     0.600 0 0 0 1
L_A_0022               CIRCULAR     0.600 0 0 0 1
L_A_0023               CIRCULAR     0.600 0 0 0 1
L_A_0024               CIRCULAR     0.600 0 0 0 1
L_A_0025               CIRCULAR     0.600 0 0 0 1
L_A_0026               CIRCULAR     0.600 0 0 0 1
L_A_0027               CIRCULAR     0.600 0 0 0 1
L_A_0028               CIRCULAR     0.600 0 0 0 1
L_A_0029               CIRCULAR     0.600 0 0 0 1
L_A_0030               CIRCULAR     0.600 0 0 0 1
L_A_0031               CIRCULAR     0.600 0 0 0 1
L_A_0032               CIRCULAR     0.600 0 0 0 1
L_A_0033               CIRCULAR     0.600 0 0 0 1
L_A_0034               CIRCULAR     0.600 0 0 0 1
L_A_0035               CIRCULAR     0.600 0 0 0 1
L_A_0036               CIRCULAR     0.600 0 0 0 1
L_A_0037               CIRCULAR     0.600 0 0 0 1
L_A_0038               CIRCULAR     0.600 0 0 0 1
L_A_0039               CIRCULAR     0.600 0 0 0 1
L_A_0040               CIRCULAR     0.600 0 0 0 1
L_A_0041               CIRCULAR     0.600 0 0 0 1
L_A_0042               CIRCULAR     0.600 0 0 0 1
L_A_0043               CIRCULAR     0.600 0 0 0 1
L_A_0044               CIRCULAR     0.600 0 0 0 1
L_A_0045               CIRCULAR     0.600 0 0 0 1
L_A_0046               CIRCULAR     0.600 0 0 0 1
L_A_0047               CIRCULAR     0.600 0 0 0 1
L_A_0048               CIRCULAR     0.600 0 0 0 1
L_A_0049               CIRCULAR     0.600 0 0 0 1
L_A_0050               CIRCULAR     0.600 0 0 0 1
L_A_0051               CIRCULAR     0.600 0 0 0 1
L_A_0052               CIRCULAR     0.600 0 0 0 1
L_A_0053               CIRCULAR     0.600 0 0 0 1
L_A_0054               CIRCULAR     0.600 0 0 0 1
L_A_0055               CIRCULAR     0.600 0 0 0 1
L_A_0056               CIRCULAR     0.600 0 0 0 1
L_A_0057               CIRCULAR     0.600 0 0 0 1
L_A_0058               CIRCULAR     0.600 0 0 0 1
L_A_0059               CIRCULAR     0.600 0 0 0 1
L_A_0060               CIRCULAR     0.600 0 0 0 1
L_A_0061               CIRCULAR     0.600 0 0 0 1
L_A_0062               CIRCULAR     0.600 0 0 0 1
L_A_0063               CIRCULAR     0.600 0 0 0 1
L_A_0064               CIRCULAR     0.600 0 0 0 1
L_A_0065               CIRCULAR     0.600 0 0 0 1
L_A_0066               CIRCULAR     0.600 0 0 0 1
L_A_0067               CIRCULAR     0.600 0 0 0 1
L_A_0068               CIRCULAR     0.600 0 0 0 1
L_A_0069               CIRCULAR     0.600 0 0 0 1
L_A_0070               CIRCULAR     0.600 0 0 0 1
L_A_0071               CIRCULAR     0.600 0 0 0 1
L_A_0072               CIRCULAR     0.600 0 0 0 1
L_A_0073               CIRCULAR     0.600 0 0 0 1
L_A_0074               CIRCULAR     0.600 0 0 0 1
L_A_0075               CIRCULAR     0.600 0 0 0 1
L_A_0076               CIRCULAR     0.600 0 0 0 1
L_A_0077               CIRCULAR     0.600 0 0 0 1
L_A_0078               CIRCULAR     0.600 0 0 0 1
L_A_0079               CIRCULAR     0.600 0 0 0 1
L_A_0080               CIRCULAR     0.600 0 0 0 1
L_A_0081               CIRCULAR     0.600 0 0 0 1
L_A_0082               CIRCULAR     0.600 0 0 0 1
L_A_0083               CIRCULAR     0.600 0 0 0 1
L_A_0084               CIRCULAR     0.600 0 0 0 1
L_A_0085               CIRCULAR     0.600 0 0 0 1
L_A_0086               CIRCULAR     0.600 0 0 0 1
L_A_0087               CIRCULAR     0.600 0 0 0 1
L_A_0088               CIRCULAR     0.600 0 0 0 1
L_A_0089               CIRCULAR     0.600 0 0 0 1
L_A_0090               CIRCULAR     0.600 0 0 0 1
L_A_0091               CIRCULAR     0.600 0 0 0 1
L_A_0092               CIRCULAR     0.600 0 0 0 1
L_A_0093               CIRCULAR     0.600 0 0 0 1
L_A_0094               CIRCULAR     0.600 0 0 0 1
L_A_0095               CIRCULAR     0.600 0 0 0 1
L_A_0096               CIRCULAR     0.600 0 0 0 1
L_A_0097               CIRCULAR     0.600 0 0 0 1
L_A_0098               CIRCULAR     0.600 0 0 0 1
L_A_0099               CIRCULAR     0.600 0 0 0 1
L_A_0100               CIRCULAR     0.600 0 0 0 1
L_A_0101               CIRCULAR     0.600 0 0 0 1
L_A_0102               CIRCULAR     0.600 0 0 0 1
L_A_0103               CIRCULAR     0.600 0 0 0 1
L_A_0104               CIRCULAR     0.600 0 0 0 1
L_A_0105               CIRCULAR     0.600 0 0 0 1
L_A_0106               CIRCULAR     0.600 0 0 0 1
L_A_0107               CIRCULAR     0.600 0 0 0 1
L_A_0108               CIRCULAR     0.600 0 0 0 1
L_A_0109               CIRCULAR     0.600 0 0 0 1
L_A_0110               CIRCULAR     0.600 0 0 0 1
L_A_0111               CIRCULAR     0.600 0 0 0 1
L_A_0112               CIRCULAR     0.600 0 0 0 1
L_A_0113               CIRCULAR     0.600 0 0 0 1
L_A_0114               CIRCULAR     0.600 0 0 0 1
L_A_0115               CIRCULAR     0.600 0 0 0 1
L_A_0116               CIRCULAR     0.600 0 0 0 1
L_A_0117               CIRCULAR     0.600 0 0 0 1
L_A_0118               CIRCULAR     0.600 0 0 0 1
L_A_0119               CIRCULAR     0.600 0 0 0 1
L_A_0120               CIRCULAR     0.600 0 0 0 1
L_A_0121               CIRCULAR     0.600 0 0 0 1
L_A_0122               CIRCULAR     0.600 0 0 0 1
L_A_0123               CIRCULAR     0.600 0 0 0 1
L_A_0124               CIRCULAR     0.600 0 0 0 1
L_A_0125               CIRCULAR     0.600 0 0 0 1
L_A_0126               CIRCULAR     0.600 0 0 0 1
L_A_0127               CIRCULAR     0.600 0 0 0 1
L_A_0128               CIRCULAR     0.600 0 0 0 1
L_A_0129               CIRCULAR     0.600 0 0 0 1
L_A_0130               CIRCULAR     0.600 0 0 0 1
L_A_0131               CIRCULAR     0.800 0 0 0 1
L_A_0132               CIRCULAR     0.800 0 0 0 1
L_A_0133               CIRCULAR     0.800 0 0 0 1
L_A_0134               CIRCULAR     0.800 0 0 0 1
L_A_0135               CIRCULAR     0.800 0 0 0 1
L_A_0136               CIRCULAR     0.800 0 0 0 1
L_A_0137               CIRCULAR     0.800 0 0 0 1
L_A_0138               CIRCULAR     0.800 0 0 0 1
L_A_0139               CIRCULAR     0.800 0 0 0 1
L_A_0140               CIRCULAR     0.800 0 0 0 1
L_A_0141               CIRCULAR     0.800 0 0 0 1
L_A_0142               CIRCULAR     0.800 0 0 0 1
L_A_0143               CIRCULAR     0.800 0 0 0 1
L_A_0144               CIRCULAR     0.800 0 0 0 1
L_A_0145               CIRCULAR     0.800 0 0 0 1
L_A_0146               CIRCULAR     0.800 0 0 0 1
L_A_0147               CIRCULAR     0.800 0 0 0 1
L_A_0148               CIRCULAR     0.800 0 0 0 1
L_A_0149               CIRCULAR     0.800 0 0 0 1
L_A_0150               CIRCULAR     0.800 0 0 0 1
L_A_0151               CIRCULAR     0.800 0 0 0 1
L_A_0152               CIRCULAR     0.800 0 0 0 1
L_A_0153               CIRCULAR     0.800 0 0 0 1
L_A_0154               CIRCULAR     0.800 0 0 0 1
L_A_0155               CIRCULAR     0.800 0 0 0 1
L_A_0156               CIRCULAR     0.800 0 0 0 1
L_A_0157               CIRCULAR     0.800 0 0 0 1
L_A_0158               CIRCULAR     0.800 0 0 0 1
L_A_0159               CIRCULAR     0.800 0 0 0 1
L_A_0160               CIRCULAR     0.800 0 0 0 1
L_A_0161               CIRCULAR     0.800 0 0 0 1
L_A_0162               CIRCULAR     0.800 0 0 0 1
L_A_0163               CIRCULAR     0.800 0 0 0 1
L_A_0164               CIRCULAR     0.800 0 0 0 1
L_A_0165               CIRCULAR     0.800 0 0 0 1
L_A_0166               CIRCULAR     0.800 0 0 0 1
L_A_0167               CIRCULAR     0.800 0 0 0 1
L_A_0168               CIRCULAR     0.800 0 0 0 1
L_A_0169               CIRCULAR     0.800 0 0 0 1
L_A_0170               CIRCULAR     0.800 0 0 0 1
L_A_0171               CIRCULAR     0.800 0 0 0 1
L_A_0172               CIRCULAR     0.800 0 0 0 1
L_A_0173               CIRCULAR     0.800 0 0 0 1
L_A_0174               CIRCULAR     0.800 0 0 0 1
L_A_0175               CIRCULAR     0.800 0 0 0 1
L_A_0176               CIRCULAR     0.800 0 0 0 1
L_A_0177               CIRCULAR     0.800 0 0 0 1
L_A_0178               CIRCULAR     0.800 0 0 0 1
L_A_0179               CIRCULAR     0.800 0 0 0 1
L_A_0180               CIRCULAR     0.800 0 0 0 1
L_A_0181               CIRCULAR     0.800 0 0 0 1
L_A_0182               CIRCULAR     0.800 0 0 0 1
L_A_0183               CIRCULAR     0.800 0 0 0 1
L_A_0184               CIRCULAR     0.800 0 0 0 1
L_A_0185               CIRCULAR     0.800 0 0 0 1
L_A_0186               CIRCULAR     0.800 0 0 0 1
L_A_0187               CIRCULAR     0.800 0 0 0 1

[POLYGONS]
;;Subcatchment          X-Coord Y-Coord
SC_A_0001              287737.911 9196735.403
SC_A_0001              287722.763 9196657.568
SC_A_0001              287672.354 9196580.910
SC_A_0001              287655.487 9196565.592
SC_A_0001              287655.487 9196698.317
SC_A_0001              287650.487 9196698.317
SC_A_0001              287650.487 9196728.317
SC_A_0001              287645.487 9196728.317
SC_A_0001              287645.487 9196758.317
SC_A_0001              287640.487 9196758.317
SC_A_0001              287640.487 9196788.317
SC_A_0001              287635.487 9196788.317
SC_A_0001              287635.487 9196808.317
SC_A_0001              287640.487 9196808.317
SC_A_0001              287640.487 9196823.317
SC_A_0001              287645.487 9196823.317
SC_A_0001              287645.487 9196843.317
SC_A_0001              287650.487 9196843.317
SC_A_0001              287650.487 9196858.317
SC_A_0001              287655.487 9196858.317
SC_A_0001              287655.487 9196873.317
SC_A_0001              287660.487 9196873.317
SC_A_0001              287660.487 9196893.317
SC_A_0001              287665.487 9196893.317
SC_A_0001              287665.487 9196908.317
SC_A_0001              287670.487 9196908.317
SC_A_0001              287670.487 9196928.317
SC_A_0001              287675.487 9196928.317
SC_A_0001              287675.487 9196943.317
SC_A_0001              287680.487 9196943.317
SC_A_0001              287680.487 9196963.317
SC_A_0001              287681.086 9196963.317
SC_A_0001              287737.911 9196735.403
SC_A_0002              287884.303 9196429.380
SC_A_0002              287882.550 9196374.471
SC_A_0002              287877.563 9196363.496
SC_A_0002              287650.487 9196367.773
SC_A_0002              287650.487 9196444.056
SC_A_0002              287884.303 9196429.380
SC_A_0003              287789.328 9196141.196
SC_A_0003              287790.470 9196220.887
SC_A_0003              287866.711 9196220.327
SC_A_0003              287866.688 9196193.746
SC_A_0003              287866.089 9196158.970
SC_A_0003              287850.731 9196138.589
SC_A_0003              287789.328 9196141.196
SC_A_0004              287850.731 9196138.589
SC_A_0004              287854.913 9196071.315
SC_A_0004              287845.520 9196059.387
SC_A_0004              287680.487 9196065.655
SC_A_0004              287680.487 9196078.317
SC_A_0004              287675.487 9196078.317
SC_A_0004              287675.487 9196103.317
SC_A_0004              287670.487 9196103.317
SC_A_0004              287670.487 9196119.613
SC_A_0004              287789.328 9196141.196
SC_A_0004              287850.731 9196138.589
SC_A_0005              287790.470 9196220.887
SC_A_0005              287789.328 9196141.196
SC_A_0005              287670.487 9196119.613
SC_A_0005              287670.487 9196128.317
SC_A_0005              287665.487 9196128.317
SC_A_0005              287665.487 9196153.317
SC_A_0005              287660.487 9196153.317
SC_A_0005              287660.487 9196178.317
SC_A_0005              287655.487 9196178.317
SC_A_0005              287655.487 9196198.317
SC_A_0005              287650.487 9196198.317
SC_A_0005              287650.487 9196262.496
SC_A_0005              287790.470 9196220.887
SC_A_0006              287845.520 9196059.387
SC_A_0006              287840.553 9195986.563
SC_A_0006              287835.448 9195981.951
SC_A_0006              287700.487 9195975.581
SC_A_0006              287700.487 9195983.317
SC_A_0006              287695.487 9195983.317
SC_A_0006              287695.487 9196008.317
SC_A_0006              287690.487 9196008.317
SC_A_0006              287690.487 9196033.317
SC_A_0006              287685.487 9196033.317
SC_A_0006              287685.487 9196053.317
SC_A_0006              287680.487 9196053.317
SC_A_0006              287680.487 9196065.655
SC_A_0006              287845.520 9196059.387
SC_A_0007              287840.553 9195986.563
SC_A_0007              287950.658 9195964.759
SC_A_0007              287951.417 9195955.443
SC_A_0007              287876.788 9195873.317
SC_A_0007              287838.850 9195873.317
SC_A_0007              287838.380 9195888.317
SC_A_0007              287860.487 9195888.317
SC_A_0007              287860.487 9195893.317
SC_A_0007              287838.223 9195893.317
SC_A_0007              287835.448 9195981.951
SC_A_0007              287840.553 9195986.563
SC_A_0008              287835.448 9195981.951
SC_A_0008              287838.223 9195893.317
SC_A_0008              287825.487 9195893.317
SC_A_0008              287825.487 9195888.317
SC_A_0008              287838.380 9195888.317
SC_A_0008              287838.850 9195873.317
SC_A_0008              287785.487 9195873.317
SC_A_0008              287785.487 9195868.317
SC_A_0008              287780.487 9195868.317
SC_A_0008              287780.487 9195863.317
SC_A_0008              287760.487 9195863.317
SC_A_0008              287760.487 9195858.317
SC_A_0008              287755.487 9195858.317
SC_A_0008              287755.487 9195853.317
SC_A_0008              287730.487 9195853.317
SC_A_0008              287730.487 9195848.317
SC_A_0008              287725.487 9195848.317
SC_A_0008              287725.487 9195868.317
SC_A_0008              287720.487 9195868.317
SC_A_0008              287720.487 9195883.317
SC_A_0008              287715.487 9195883.317
SC_A_0008              287715.487 9195908.317
SC_A_0008              287710.487 9195908.317
SC_A_0008              287710.487 9195933.317
SC_A_0008              287705.487 9195933.317
SC_A_0008              287705.487 9195958.317
SC_A_0008              287700.487 9195958.317
SC_A_0008              287700.487 9195975.581
SC_A_0008              287835.448 9195981.951
SC_A_0009              287845.520 9196059.387
SC_A_0009              287854.913 9196071.315
SC_A_0009              287988.619 9196042.946
SC_A_0009              287951.747 9195966.834
SC_A_0009              287950.658 9195964.759
SC_A_0009              287840.553 9195986.563
SC_A_0009              287845.520 9196059.387
SC_A_0010              287951.417 9195955.443
SC_A_0010              287952.867 9195953.576
SC_A_0010              287975.487 9195914.674
SC_A_0010              287975.487 9195913.317
SC_A_0010              287970.487 9195913.317
SC_A_0010              287970.487 9195908.317
SC_A_0010              287965.487 9195908.317
SC_A_0010              287965.487 9195903.317
SC_A_0010              287960.487 9195903.317
SC_A_0010              287960.487 9195898.317
SC_A_0010              287955.487 9195898.317
SC_A_0010              287955.487 9195893.317
SC_A_0010              287950.487 9195893.317
SC_A_0010              287950.487 9195888.317
SC_A_0010              287945.487 9195888.317
SC_A_0010              287945.487 9195883.317
SC_A_0010              287940.487 9195883.317
SC_A_0010              287940.487 9195878.317
SC_A_0010              287915.487 9195878.317
SC_A_0010              287915.487 9195873.317
SC_A_0010              287876.788 9195873.317
SC_A_0010              287951.417 9195955.443
SC_A_0011              287866.711 9196220.327
SC_A_0011              287869.914 9196226.388
SC_A_0011              287968.087 9196212.882
SC_A_0011              287968.148 9196179.787
SC_A_0011              287866.688 9196193.746
SC_A_0011              287866.711 9196220.327
SC_A_0012              287650.487 9196262.496
SC_A_0012              287650.487 9196293.617
SC_A_0012              287873.314 9196291.657
SC_A_0012              287869.914 9196226.388
SC_A_0012              287866.711 9196220.327
SC_A_0012              287790.470 9196220.887
SC_A_0012              287650.487 9196262.496
SC_A_0013              287866.688 9196193.746
SC_A_0013              287968.148 9196179.787
SC_A_0013              287969.800 9196129.499
SC_A_0013              287866.089 9196158.970
SC_A_0013              287866.688 9196193.746
SC_A_0014              287877.563 9196363.496
SC_A_0014              287877.921 9196345.027
SC_A_0014              287877.016 9196298.143
SC_A_0014              287873.314 9196291.657
SC_A_0014              287650.487 9196293.617
SC_A_0014              287650.487 9196367.773
SC_A_0014              287877.563 9196363.496
SC_A_0015              287866.089 9196158.970
SC_A_0015              287969.800 9196129.499
SC_A_0015              288022.649 9196070.275
SC_A_0015              287988.619 9196042.946
SC_A_0015              287854.913 9196071.315
SC_A_0015              287850.731 9196138.589
SC_A_0015              287866.089 9196158.970
SC_A_0016              287885.359 9196505.149
SC_A_0016              287888.059 9196438.227
SC_A_0016              287885.424 9196431.836
SC_A_0016              287884.303 9196429.380
SC_A_0016              287650.487 9196444.056
SC_A_0016              287650.487 9196498.317
SC_A_0016              287655.487 9196498.317
SC_A_0016              287655.487 9196509.873
SC_A_0016              287885.359 9196505.149
SC_A_0017              287672.354 9196580.910
SC_A_0017              287808.996 9196580.817
SC_A_0017              287894.678 9196577.999
SC_A_0017              287893.787 9196523.764
SC_A_0017              287885.359 9196505.149
SC_A_0017              287655.487 9196509.873
SC_A_0017              287655.487 9196565.592
SC_A_0017              287672.354 9196580.910
SC_A_0018              287885.424 9196431.836
SC_A_0018              288012.324 9196379.436
SC_A_0018              287992.183 9196359.339
SC_A_0018              287882.550 9196374.471
SC_A_0018              287884.303 9196429.380
SC_A_0018              287885.424 9196431.836
SC_A_0019              287808.996 9196580.817
SC_A_0019              287810.128 9196651.967
SC_A_0019              287903.315 9196648.902
SC_A_0019              287902.475 9196596.124
SC_A_0019              287894.678 9196577.999
SC_A_0019              287808.996 9196580.817
SC_A_0020              287877.016 9196298.143
SC_A_0020              287994.760 9196279.871
SC_A_0020              288015.004 9196258.616
SC_A_0020              287968.087 9196212.882
SC_A_0020              287869.914 9196226.388
SC_A_0020              287873.314 9196291.657
SC_A_0020              287877.016 9196298.143
SC_A_0021              287810.128 9196651.967
SC_A_0021              287808.996 9196580.817
SC_A_0021              287672.354 9196580.910
SC_A_0021              287722.763 9196657.568
SC_A_0021              287810.128 9196651.967
SC_A_0022              287722.763 9196657.568
SC_A_0022              287737.911 9196735.403
SC_A_0022              287906.532 9196714.068
SC_A_0022              287906.271 9196656.050
SC_A_0022              287903.315 9196648.902
SC_A_0022              287810.128 9196651.967
SC_A_0022              287722.763 9196657.568
SC_A_0023              287681.086 9196963.317
SC_A_0023              287685.487 9196963.317
SC_A_0023              287685.487 9196978.317
SC_A_0023              287690.487 9196978.317
SC_A_0023              287690.487 9196998.317
SC_A_0023              287695.487 9196998.317
SC_A_0023              287695.487 9197013.317
SC_A_0023              287700.487 9197013.317
SC_A_0023              287700.487 9197033.317
SC_A_0023              287705.487 9197033.317
SC_A_0023              287705.487 9197048.317
SC_A_0023              287710.487 9197048.317
SC_A_0023              287710.487 9197068.317
SC_A_0023              287715.487 9197068.317
SC_A_0023              287715.487 9197083.317
SC_A_0023              287720.487 9197083.317
SC_A_0023              287720.487 9197103.317
SC_A_0023              287725.487 9197103.317
SC_A_0023              287725.487 9197118.317
SC_A_0023              287730.487 9197118.317
SC_A_0023              287730.487 9197138.317
SC_A_0023              287735.487 9197138.317
SC_A_0023              287735.487 9197153.317
SC_A_0023              287740.487 9197153.317
SC_A_0023              287740.487 9197173.317
SC_A_0023              287745.487 9197173.317
SC_A_0023              287745.487 9197203.317
SC_A_0023              287750.487 9197203.317
SC_A_0023              287750.487 9197233.317
SC_A_0023              287755.487 9197233.317
SC_A_0023              287755.487 9197263.317
SC_A_0023              287760.487 9197263.317
SC_A_0023              287760.487 9197293.317
SC_A_0023              287765.487 9197293.317
SC_A_0023              287765.487 9197318.317
SC_A_0023              287770.487 9197318.317
SC_A_0023              287770.487 9197348.317
SC_A_0023              287775.487 9197348.317
SC_A_0023              287775.487 9197388.468
SC_A_0023              287982.311 9196901.239
SC_A_0023              287956.308 9196831.162
SC_A_0023              287906.532 9196714.068
SC_A_0023              287737.911 9196735.403
SC_A_0023              287681.086 9196963.317
SC_A_0024              288201.359 9197318.317
SC_A_0024              288200.487 9197318.317
SC_A_0024              288200.487 9197313.317
SC_A_0024              288195.487 9197313.317
SC_A_0024              288195.487 9197243.317
SC_A_0024              288200.487 9197243.317
SC_A_0024              288200.487 9197173.317
SC_A_0024              288195.487 9197173.317
SC_A_0024              288195.487 9197163.317
SC_A_0024              288190.487 9197163.317
SC_A_0024              288190.487 9197148.317
SC_A_0024              288185.487 9197148.317
SC_A_0024              288185.487 9197138.317
SC_A_0024              288180.487 9197138.317
SC_A_0024              288180.487 9197128.317
SC_A_0024              288175.487 9197128.317
SC_A_0024              288175.487 9197118.317
SC_A_0024              288216.396 9197118.317
SC_A_0024              288235.742 9196860.988
SC_A_0024              288228.851 9196856.828
SC_A_0024              288043.405 9196852.980
SC_A_0024              287982.311 9196901.239
SC_A_0024              287775.487 9197388.468
SC_A_0024              287775.487 9197508.317
SC_A_0024              287780.487 9197508.317
SC_A_0024              287780.487 9197543.317
SC_A_0024              287785.487 9197543.317
SC_A_0024              287785.487 9197573.317
SC_A_0024              287790.487 9197573.317
SC_A_0024              287790.487 9197608.317
SC_A_0024              287795.487 9197608.317
SC_A_0024              287795.487 9197633.317
SC_A_0024              287800.487 9197633.317
SC_A_0024              287800.487 9197628.317
SC_A_0024              287810.487 9197628.317
SC_A_0024              287810.487 9197623.317
SC_A_0024              287820.487 9197623.317
SC_A_0024              287820.487 9197618.317
SC_A_0024              287825.487 9197618.317
SC_A_0024              287825.487 9197613.317
SC_A_0024              287835.487 9197613.317
SC_A_0024              287835.487 9197608.317
SC_A_0024              287845.487 9197608.317
SC_A_0024              287845.487 9197603.317
SC_A_0024              287855.487 9197603.317
SC_A_0024              287855.487 9197598.317
SC_A_0024              287865.487 9197598.317
SC_A_0024              287865.487 9197593.317
SC_A_0024              287875.487 9197593.317
SC_A_0024              287875.487 9197588.317
SC_A_0024              287885.487 9197588.317
SC_A_0024              287885.487 9197593.317
SC_A_0024              287890.487 9197593.317
SC_A_0024              287890.487 9197598.317
SC_A_0024              287900.487 9197598.317
SC_A_0024              287900.487 9197603.317
SC_A_0024              287905.487 9197603.317
SC_A_0024              287905.487 9197608.317
SC_A_0024              287965.487 9197608.317
SC_A_0024              287965.487 9197613.317
SC_A_0024              287980.487 9197613.317
SC_A_0024              287980.487 9197608.317
SC_A_0024              287985.487 9197608.317
SC_A_0024              287985.487 9197603.317
SC_A_0024              287990.487 9197603.317
SC_A_0024              287990.487 9197598.317
SC_A_0024              287995.487 9197598.317
SC_A_0024              287995.487 9197588.317
SC_A_0024              288000.487 9197588.317
SC_A_0024              288000.487 9197583.317
SC_A_0024              288005.487 9197583.317
SC_A_0024              288005.487 9197578.317
SC_A_0024              288010.487 9197578.317
SC_A_0024              288010.487 9197573.317
SC_A_0024              288015.487 9197573.317
SC_A_0024              288015.487 9197568.317
SC_A_0024              288020.487 9197568.317
SC_A_0024              288020.487 9197563.317
SC_A_0024              288025.487 9197563.317
SC_A_0024              288025.487 9197558.317
SC_A_0024              288030.487 9197558.317
SC_A_0024              288030.487 9197553.317
SC_A_0024              288035.487 9197553.317
SC_A_0024              288035.487 9197548.317
SC_A_0024              288040.487 9197548.317
SC_A_0024              288040.487 9197543.317
SC_A_0024              288050.487 9197543.317
SC_A_0024              288050.487 9197538.317
SC_A_0024              288055.487 9197538.317
SC_A_0024              288055.487 9197533.317
SC_A_0024              288060.487 9197533.317
SC_A_0024              288060.487 9197528.317
SC_A_0024              288070.487 9197528.317
SC_A_0024              288070.487 9197523.317
SC_A_0024              288075.487 9197523.317
SC_A_0024              288075.487 9197518.317
SC_A_0024              288085.487 9197518.317
SC_A_0024              288085.487 9197513.317
SC_A_0024              288090.487 9197513.317
SC_A_0024              288090.487 9197508.317
SC_A_0024              288095.487 9197508.317
SC_A_0024              288095.487 9197503.317
SC_A_0024              288105.487 9197503.317
SC_A_0024              288105.487 9197498.317
SC_A_0024              288110.487 9197498.317
SC_A_0024              288110.487 9197493.317
SC_A_0024              288115.487 9197493.317
SC_A_0024              288115.487 9197488.317
SC_A_0024              288120.487 9197488.317
SC_A_0024              288120.487 9197483.317
SC_A_0024              288125.487 9197483.317
SC_A_0024              288125.487 9197478.317
SC_A_0024              288130.487 9197478.317
SC_A_0024              288130.487 9197473.317
SC_A_0024              288135.487 9197473.317
SC_A_0024              288135.487 9197468.317
SC_A_0024              288140.487 9197468.317
SC_A_0024              288140.487 9197463.317
SC_A_0024              288150.487 9197463.317
SC_A_0024              288150.487 9197458.317
SC_A_0024              288155.487 9197458.317
SC_A_0024              288155.487 9197448.317
SC_A_0024              288160.487 9197448.317
SC_A_0024              288160.487 9197438.317
SC_A_0024              288165.487 9197438.317
SC_A_0024              288165.487 9197428.317
SC_A_0024              288170.487 9197428.317
SC_A_0024              288170.487 9197418.317
SC_A_0024              288175.487 9197418.317
SC_A_0024              288175.487 9197408.317
SC_A_0024              288180.487 9197408.317
SC_A_0024              288180.487 9197398.317
SC_A_0024              288185.487 9197398.317
SC_A_0024              288185.487 9197393.317
SC_A_0024              288190.487 9197393.317
SC_A_0024              288190.487 9197383.317
SC_A_0024              288195.487 9197383.317
SC_A_0024              288195.487 9197378.317
SC_A_0024              288196.848 9197378.317
SC_A_0024              288201.359 9197318.317
SC_A_0025              287959.698 9196511.164
SC_A_0025              287971.643 9196471.441
SC_A_0025              287959.702 9196437.996
SC_A_0025              287888.059 9196438.227
SC_A_0025              287885.359 9196505.149
SC_A_0025              287893.787 9196523.764
SC_A_0025              287959.698 9196511.164
SC_A_0026              287893.787 9196523.764
SC_A_0026              287894.678 9196577.999
SC_A_0026              287902.475 9196596.124
SC_A_0026              288065.001 9196561.279
SC_A_0026              288047.509 9196543.449
SC_A_0026              288007.641 9196507.133
SC_A_0026              287959.698 9196511.164
SC_A_0026              287893.787 9196523.764
SC_A_0027              287951.747 9195966.834
SC_A_0027              288020.487 9195952.712
SC_A_0027              288020.487 9195948.317
SC_A_0027              288030.487 9195948.317
SC_A_0027              288030.487 9195950.657
SC_A_0027              288068.870 9195942.772
SC_A_0027              288063.807 9195930.784
SC_A_0027              287952.867 9195953.576
SC_A_0027              287951.417 9195955.443
SC_A_0027              287950.658 9195964.759
SC_A_0027              287951.747 9195966.834
SC_A_0028              287877.921 9196345.027
SC_A_0028              287991.854 9196320.875
SC_A_0028              287994.760 9196279.871
SC_A_0028              287877.016 9196298.143
SC_A_0028              287877.921 9196345.027
SC_A_0029              287877.563 9196363.496
SC_A_0029              287882.550 9196374.471
SC_A_0029              287992.183 9196359.339
SC_A_0029              287991.854 9196320.875
SC_A_0029              287877.921 9196345.027
SC_A_0029              287877.563 9196363.496
SC_A_0030              287968.148 9196179.787
SC_A_0030              287968.087 9196212.882
SC_A_0030              288015.004 9196258.616
SC_A_0030              288040.487 9196254.106
SC_A_0030              288040.487 9196192.310
SC_A_0030              288036.732 9196071.925
SC_A_0030              288022.649 9196070.275
SC_A_0030              287969.800 9196129.499
SC_A_0030              287968.148 9196179.787
SC_A_0031              288136.243 9195898.862
SC_A_0031              288172.010 9195943.695
SC_A_0031              288204.691 9195898.317
SC_A_0031              288200.487 9195898.317
SC_A_0031              288200.487 9195893.317
SC_A_0031              288195.487 9195893.317
SC_A_0031              288195.487 9195888.317
SC_A_0031              288190.487 9195888.317
SC_A_0031              288190.487 9195883.317
SC_A_0031              288185.487 9195883.317
SC_A_0031              288185.487 9195878.317
SC_A_0031              288175.487 9195878.317
SC_A_0031              288175.487 9195873.317
SC_A_0031              288170.487 9195873.317
SC_A_0031              288170.487 9195868.317
SC_A_0031              288135.487 9195868.317
SC_A_0031              288135.487 9195873.317
SC_A_0031              288126.717 9195873.317
SC_A_0031              288136.243 9195898.862
SC_A_0032              287994.760 9196279.871
SC_A_0032              287991.854 9196320.875
SC_A_0032              287992.183 9196359.339
SC_A_0032              288012.324 9196379.436
SC_A_0032              288039.094 9196402.999
SC_A_0032              288063.855 9196372.781
SC_A_0032              288064.475 9196359.739
SC_A_0032              288062.708 9196261.642
SC_A_0032              288040.487 9196254.106
SC_A_0032              288015.004 9196258.616
SC_A_0032              287994.760 9196279.871
SC_A_0033              287888.059 9196438.227
SC_A_0033              287959.702 9196437.996
SC_A_0033              288012.906 9196429.704
SC_A_0033              288039.104 9196403.519
SC_A_0033              288039.094 9196402.999
SC_A_0033              288012.324 9196379.436
SC_A_0033              287885.424 9196431.836
SC_A_0033              287888.059 9196438.227
SC_A_0034              287971.643 9196471.441
SC_A_0034              288007.570 9196488.717
SC_A_0034              288012.906 9196429.704
SC_A_0034              287959.702 9196437.996
SC_A_0034              287971.643 9196471.441
SC_A_0035              287903.315 9196648.902
SC_A_0035              287906.271 9196656.050
SC_A_0035              288020.900 9196648.462
SC_A_0035              288046.576 9196642.569
SC_A_0035              288073.097 9196608.375
SC_A_0035              288076.634 9196565.821
SC_A_0035              288065.001 9196561.279
SC_A_0035              287902.475 9196596.124
SC_A_0035              287903.315 9196648.902
SC_A_0036              287959.698 9196511.164
SC_A_0036              288007.641 9196507.133
SC_A_0036              288007.570 9196488.717
SC_A_0036              287971.643 9196471.441
SC_A_0036              287959.698 9196511.164
SC_A_0037              287906.532 9196714.068
SC_A_0037              287956.308 9196831.162
SC_A_0037              288020.900 9196648.462
SC_A_0037              287906.271 9196656.050
SC_A_0037              287906.532 9196714.068
SC_A_0038              288007.641 9196507.133
SC_A_0038              288047.509 9196543.449
SC_A_0038              288041.491 9196405.713
SC_A_0038              288039.104 9196403.519
SC_A_0038              288012.906 9196429.704
SC_A_0038              288007.570 9196488.717
SC_A_0038              288007.641 9196507.133
SC_A_0039              288020.900 9196648.462
SC_A_0039              287956.308 9196831.162
SC_A_0039              287982.311 9196901.239
SC_A_0039              288043.405 9196852.980
SC_A_0039              288062.048 9196819.073
SC_A_0039              288046.576 9196642.569
SC_A_0039              288020.900 9196648.462
SC_A_0040              288081.713 9196562.393
SC_A_0040              288082.890 9196455.457
SC_A_0040              288072.726 9196436.847
SC_A_0040              288065.195 9196425.247
SC_A_0040              288041.491 9196405.713
SC_A_0040              288047.509 9196543.449
SC_A_0040              288065.001 9196561.279
SC_A_0040              288076.634 9196565.821
SC_A_0040              288081.713 9196562.393
SC_A_0041              288076.634 9196565.821
SC_A_0041              288073.097 9196608.375
SC_A_0041              288171.270 9196709.407
SC_A_0041              288187.625 9196704.872
SC_A_0041              288182.303 9196625.105
SC_A_0041              288174.859 9196552.054
SC_A_0041              288171.674 9196551.128
SC_A_0041              288158.577 9196548.186
SC_A_0041              288111.343 9196555.923
SC_A_0041              288081.713 9196562.393
SC_A_0041              288076.634 9196565.821
SC_A_0042              288084.152 9195908.317
SC_A_0042              288080.487 9195908.317
SC_A_0042              288080.487 9195908.983
SC_A_0042              288084.152 9195908.317
SC_A_0043              288136.243 9195898.862
SC_A_0043              288126.717 9195873.317
SC_A_0043              288115.487 9195873.317
SC_A_0043              288115.487 9195878.317
SC_A_0043              288110.487 9195878.317
SC_A_0043              288110.487 9195883.317
SC_A_0043              288105.487 9195883.317
SC_A_0043              288105.487 9195888.317
SC_A_0043              288100.487 9195888.317
SC_A_0043              288100.487 9195893.317
SC_A_0043              288095.487 9195893.317
SC_A_0043              288095.487 9195898.317
SC_A_0043              288090.487 9195898.317
SC_A_0043              288090.487 9195903.317
SC_A_0043              288085.487 9195903.317
SC_A_0043              288085.487 9195908.075
SC_A_0043              288136.243 9195898.862
SC_A_0044              287988.619 9196042.946
SC_A_0044              288022.649 9196070.275
SC_A_0044              288036.732 9196071.925
SC_A_0044              288105.392 9196057.819
SC_A_0044              288122.024 9196049.157
SC_A_0044              288068.870 9195942.772
SC_A_0044              288030.487 9195950.657
SC_A_0044              288030.487 9195953.317
SC_A_0044              288020.487 9195953.317
SC_A_0044              288020.487 9195952.712
SC_A_0044              287951.747 9195966.834
SC_A_0044              287988.619 9196042.946
SC_A_0045              287952.867 9195953.576
SC_A_0045              288063.807 9195930.784
SC_A_0045              288062.805 9195923.317
SC_A_0045              288040.487 9195923.317
SC_A_0045              288040.487 9195928.317
SC_A_0045              288010.487 9195928.317
SC_A_0045              288010.487 9195933.317
SC_A_0045              288005.487 9195933.317
SC_A_0045              288005.487 9195928.317
SC_A_0045              287985.487 9195928.317
SC_A_0045              287985.487 9195923.317
SC_A_0045              287980.487 9195923.317
SC_A_0045              287980.487 9195918.317
SC_A_0045              287975.487 9195918.317
SC_A_0045              287975.487 9195914.674
SC_A_0045              287952.867 9195953.576
SC_A_0046              288041.491 9196405.713
SC_A_0046              288065.195 9196425.247
SC_A_0046              288151.009 9196407.135
SC_A_0046              288160.678 9196381.762
SC_A_0046              288138.979 9196362.499
SC_A_0046              288063.855 9196372.781
SC_A_0046              288039.094 9196402.999
SC_A_0046              288039.104 9196403.519
SC_A_0046              288041.491 9196405.713
SC_A_0047              288063.807 9195930.784
SC_A_0047              288068.870 9195942.772
SC_A_0047              288122.024 9196049.157
SC_A_0047              288165.237 9196041.312
SC_A_0047              288172.010 9195943.695
SC_A_0047              288136.243 9195898.862
SC_A_0047              288085.487 9195908.075
SC_A_0047              288085.487 9195908.317
SC_A_0047              288084.152 9195908.317
SC_A_0047              288080.487 9195908.983
SC_A_0047              288080.487 9195913.317
SC_A_0047              288075.487 9195913.317
SC_A_0047              288075.487 9195918.317
SC_A_0047              288070.487 9195918.317
SC_A_0047              288070.487 9195923.317
SC_A_0047              288062.805 9195923.317
SC_A_0047              288063.807 9195930.784
SC_A_0048              288040.487 9196192.310
SC_A_0048              288112.484 9196177.519
SC_A_0048              288105.392 9196057.819
SC_A_0048              288036.732 9196071.925
SC_A_0048              288040.487 9196192.310
SC_A_0049              288040.487 9196254.106
SC_A_0049              288062.708 9196261.642
SC_A_0049              288119.522 9196253.278
SC_A_0049              288112.484 9196177.519
SC_A_0049              288040.487 9196192.310
SC_A_0049              288040.487 9196254.106
SC_A_0050              288063.855 9196372.781
SC_A_0050              288138.979 9196362.499
SC_A_0050              288137.289 9196330.388
SC_A_0050              288134.385 9196307.104
SC_A_0050              288064.475 9196359.739
SC_A_0050              288063.855 9196372.781
SC_A_0051              288046.576 9196642.569
SC_A_0051              288062.048 9196819.073
SC_A_0051              288171.270 9196709.407
SC_A_0051              288073.097 9196608.375
SC_A_0051              288046.576 9196642.569
SC_A_0052              288105.392 9196057.819
SC_A_0052              288112.484 9196177.519
SC_A_0052              288119.522 9196253.278
SC_A_0052              288131.767 9196257.242
SC_A_0052              288188.573 9196248.009
SC_A_0052              288176.926 9196045.895
SC_A_0052              288165.237 9196041.312
SC_A_0052              288122.024 9196049.157
SC_A_0052              288105.392 9196057.819
SC_A_0053              288062.708 9196261.642
SC_A_0053              288064.475 9196359.739
SC_A_0053              288134.385 9196307.104
SC_A_0053              288131.767 9196257.242
SC_A_0053              288119.522 9196253.278
SC_A_0053              288062.708 9196261.642
SC_A_0054              288158.577 9196548.186
SC_A_0054              288153.060 9196452.416
SC_A_0054              288153.058 9196452.413
SC_A_0054              288123.579 9196457.242
SC_A_0054              288111.343 9196555.923
SC_A_0054              288158.577 9196548.186
SC_A_0055              288137.289 9196330.388
SC_A_0055              288207.641 9196326.584
SC_A_0055              288207.762 9196323.542
SC_A_0055              288205.915 9196253.674
SC_A_0055              288188.573 9196248.009
SC_A_0055              288131.767 9196257.242
SC_A_0055              288134.385 9196307.104
SC_A_0055              288137.289 9196330.388
SC_A_0056              288065.195 9196425.247
SC_A_0056              288072.726 9196436.847
SC_A_0056              288152.149 9196431.775
SC_A_0056              288151.009 9196407.135
SC_A_0056              288065.195 9196425.247
SC_A_0057              288081.713 9196562.393
SC_A_0057              288111.343 9196555.923
SC_A_0057              288123.579 9196457.242
SC_A_0057              288082.890 9196455.457
SC_A_0057              288081.713 9196562.393
SC_A_0058              288153.058 9196452.413
SC_A_0058              288152.805 9196436.142
SC_A_0058              288152.149 9196431.775
SC_A_0058              288072.726 9196436.847
SC_A_0058              288082.890 9196455.457
SC_A_0058              288123.579 9196457.242
SC_A_0058              288153.058 9196452.413
SC_A_0059              288151.009 9196407.135
SC_A_0059              288152.149 9196431.775
SC_A_0059              288152.805 9196436.142
SC_A_0059              288223.592 9196427.056
SC_A_0059              288223.184 9196423.440
SC_A_0059              288213.140 9196377.237
SC_A_0059              288209.068 9196374.852
SC_A_0059              288160.678 9196381.762
SC_A_0059              288151.009 9196407.135
SC_A_0060              288138.979 9196362.499
SC_A_0060              288160.678 9196381.762
SC_A_0060              288209.068 9196374.852
SC_A_0060              288207.641 9196326.584
SC_A_0060              288137.289 9196330.388
SC_A_0060              288138.979 9196362.499
SC_A_0061              288043.405 9196852.980
SC_A_0061              288228.851 9196856.828
SC_A_0061              288235.160 9196725.415
SC_A_0061              288215.935 9196708.038
SC_A_0061              288187.625 9196704.872
SC_A_0061              288171.270 9196709.407
SC_A_0061              288062.048 9196819.073
SC_A_0061              288043.405 9196852.980
SC_A_0062              288176.926 9196045.895
SC_A_0062              288246.845 9196053.057
SC_A_0062              288282.864 9196046.872
SC_A_0062              288286.553 9195928.317
SC_A_0062              288245.487 9195928.317
SC_A_0062              288245.487 9195923.317
SC_A_0062              288240.487 9195923.317
SC_A_0062              288240.487 9195918.317
SC_A_0062              288235.487 9195918.317
SC_A_0062              288235.487 9195913.317
SC_A_0062              288230.487 9195913.317
SC_A_0062              288230.487 9195908.317
SC_A_0062              288225.487 9195908.317
SC_A_0062              288225.487 9195903.317
SC_A_0062              288205.487 9195903.317
SC_A_0062              288205.487 9195898.317
SC_A_0062              288204.691 9195898.317
SC_A_0062              288172.010 9195943.695
SC_A_0062              288165.237 9196041.312
SC_A_0062              288176.926 9196045.895
SC_A_0063              288153.060 9196452.416
SC_A_0063              288192.496 9196455.944
SC_A_0063              288224.220 9196451.157
SC_A_0063              288227.641 9196444.109
SC_A_0063              288223.592 9196427.056
SC_A_0063              288152.805 9196436.142
SC_A_0063              288153.058 9196452.413
SC_A_0063              288153.060 9196452.416
SC_A_0064              288188.573 9196248.009
SC_A_0064              288205.915 9196253.674
SC_A_0064              288256.406 9196245.959
SC_A_0064              288254.840 9196177.828
SC_A_0064              288246.845 9196053.057
SC_A_0064              288176.926 9196045.895
SC_A_0064              288188.573 9196248.009
SC_A_0065              288207.641 9196326.584
SC_A_0065              288209.068 9196374.852
SC_A_0065              288213.140 9196377.237
SC_A_0065              288284.388 9196363.974
SC_A_0065              288279.077 9196329.439
SC_A_0065              288207.762 9196323.542
SC_A_0065              288207.641 9196326.584
SC_A_0066              288158.577 9196548.186
SC_A_0066              288171.674 9196551.128
SC_A_0066              288192.496 9196455.944
SC_A_0066              288153.060 9196452.416
SC_A_0066              288158.577 9196548.186
SC_A_0067              288192.496 9196455.944
SC_A_0067              288171.674 9196551.128
SC_A_0067              288174.859 9196552.054
SC_A_0067              288228.859 9196543.906
SC_A_0067              288231.176 9196542.451
SC_A_0067              288224.220 9196451.157
SC_A_0067              288192.496 9196455.944
SC_A_0068              288223.184 9196423.440
SC_A_0068              288326.071 9196400.099
SC_A_0068              288332.606 9196391.942
SC_A_0068              288284.388 9196363.974
SC_A_0068              288213.140 9196377.237
SC_A_0068              288223.184 9196423.440
SC_A_0069              288306.351 9196863.314
SC_A_0069              288300.250 9196860.432
SC_A_0069              288235.742 9196860.988
SC_A_0069              288216.396 9197118.317
SC_A_0069              288245.487 9197118.317
SC_A_0069              288245.487 9197113.317
SC_A_0069              288260.487 9197113.317
SC_A_0069              288260.487 9197108.317
SC_A_0069              288265.487 9197108.317
SC_A_0069              288265.487 9197103.317
SC_A_0069              288275.487 9197103.317
SC_A_0069              288275.487 9197098.317
SC_A_0069              288285.487 9197098.317
SC_A_0069              288285.487 9197093.317
SC_A_0069              288290.487 9197093.317
SC_A_0069              288290.487 9197088.317
SC_A_0069              288300.487 9197088.317
SC_A_0069              288300.487 9197083.317
SC_A_0069              288301.311 9197083.317
SC_A_0069              288306.351 9196863.314
SC_A_0070              288196.848 9197378.317
SC_A_0070              288200.487 9197378.317
SC_A_0070              288200.487 9197368.317
SC_A_0070              288205.487 9197368.317
SC_A_0070              288205.487 9197363.317
SC_A_0070              288210.487 9197363.317
SC_A_0070              288210.487 9197358.317
SC_A_0070              288215.487 9197358.317
SC_A_0070              288215.487 9197348.317
SC_A_0070              288220.487 9197348.317
SC_A_0070              288220.487 9197343.317
SC_A_0070              288215.487 9197343.317
SC_A_0070              288215.487 9197333.317
SC_A_0070              288210.487 9197333.317
SC_A_0070              288210.487 9197328.317
SC_A_0070              288205.487 9197328.317
SC_A_0070              288205.487 9197318.317
SC_A_0070              288201.359 9197318.317
SC_A_0070              288196.848 9197378.317
SC_A_0071              288215.935 9196708.038
SC_A_0071              288251.590 9196657.158
SC_A_0071              288250.329 9196635.387
SC_A_0071              288245.081 9196615.632
SC_A_0071              288182.303 9196625.105
SC_A_0071              288187.625 9196704.872
SC_A_0071              288215.935 9196708.038
SC_A_0072              288182.303 9196625.105
SC_A_0072              288245.081 9196615.632
SC_A_0072              288228.859 9196543.906
SC_A_0072              288174.859 9196552.054
SC_A_0072              288182.303 9196625.105
SC_A_0073              288223.592 9196427.056
SC_A_0073              288227.641 9196444.109
SC_A_0073              288263.278 9196445.192
SC_A_0073              288296.220 9196441.960
SC_A_0073              288326.071 9196400.099
SC_A_0073              288223.184 9196423.440
SC_A_0073              288223.592 9196427.056
SC_A_0074              288228.859 9196543.906
SC_A_0074              288245.081 9196615.632
SC_A_0074              288250.329 9196635.387
SC_A_0074              288277.086 9196613.103
SC_A_0074              288298.875 9196536.735
SC_A_0074              288259.734 9196539.211
SC_A_0074              288231.176 9196542.451
SC_A_0074              288228.859 9196543.906
SC_A_0075              288254.840 9196177.828
SC_A_0075              288324.990 9196165.973
SC_A_0075              288313.522 9196061.537
SC_A_0075              288296.283 9196049.035
SC_A_0075              288282.864 9196046.872
SC_A_0075              288246.845 9196053.057
SC_A_0075              288254.840 9196177.828
SC_A_0076              288224.220 9196451.157
SC_A_0076              288231.176 9196542.451
SC_A_0076              288259.734 9196539.211
SC_A_0076              288263.278 9196445.192
SC_A_0076              288227.641 9196444.109
SC_A_0076              288224.220 9196451.157
SC_A_0077              288284.388 9196363.974
SC_A_0077              288332.606 9196391.942
SC_A_0077              288336.757 9196391.478
SC_A_0077              288349.596 9196329.272
SC_A_0077              288344.476 9196246.624
SC_A_0077              288328.632 9196241.156
SC_A_0077              288272.317 9196250.673
SC_A_0077              288279.077 9196329.439
SC_A_0077              288284.388 9196363.974
SC_A_0078              288207.762 9196323.542
SC_A_0078              288279.077 9196329.439
SC_A_0078              288272.317 9196250.673
SC_A_0078              288256.406 9196245.959
SC_A_0078              288205.915 9196253.674
SC_A_0078              288207.762 9196323.542
SC_A_0079              288272.317 9196250.673
SC_A_0079              288328.632 9196241.156
SC_A_0079              288326.297 9196177.280
SC_A_0079              288325.904 9196172.160
SC_A_0079              288324.990 9196165.973
SC_A_0079              288254.840 9196177.828
SC_A_0079              288256.406 9196245.959
SC_A_0079              288272.317 9196250.673
SC_A_0080              288282.864 9196046.872
SC_A_0080              288296.283 9196049.035
SC_A_0080              288327.820 9196013.027
SC_A_0080              288335.021 9196004.275
SC_A_0080              288360.487 9195968.611
SC_A_0080              288360.487 9195963.317
SC_A_0080              288355.487 9195963.317
SC_A_0080              288355.487 9195958.317
SC_A_0080              288350.487 9195958.317
SC_A_0080              288350.487 9195948.317
SC_A_0080              288345.487 9195948.317
SC_A_0080              288345.487 9195943.317
SC_A_0080              288340.487 9195943.317
SC_A_0080              288340.487 9195938.317
SC_A_0080              288335.487 9195938.317
SC_A_0080              288335.487 9195933.317
SC_A_0080              288330.487 9195933.317
SC_A_0080              288330.487 9195928.317
SC_A_0080              288286.553 9195928.317
SC_A_0080              288282.864 9196046.872
SC_A_0081              288263.278 9196445.192
SC_A_0081              288259.734 9196539.211
SC_A_0081              288298.875 9196536.735
SC_A_0081              288301.127 9196536.441
SC_A_0081              288296.220 9196441.960
SC_A_0081              288263.278 9196445.192
SC_A_0082              288235.160 9196725.415
SC_A_0082              288242.423 9196727.275
SC_A_0082              288338.152 9196705.287
SC_A_0082              288328.349 9196640.041
SC_A_0082              288251.590 9196657.158
SC_A_0082              288215.935 9196708.038
SC_A_0082              288235.160 9196725.415
SC_A_0083              288298.875 9196536.735
SC_A_0083              288277.086 9196613.103
SC_A_0083              288321.720 9196611.158
SC_A_0083              288313.807 9196540.617
SC_A_0083              288301.127 9196536.441
SC_A_0083              288298.875 9196536.735
SC_A_0084              288228.851 9196856.828
SC_A_0084              288235.742 9196860.988
SC_A_0084              288300.250 9196860.432
SC_A_0084              288299.181 9196778.824
SC_A_0084              288242.423 9196727.275
SC_A_0084              288235.160 9196725.415
SC_A_0084              288228.851 9196856.828
SC_A_0085              288251.590 9196657.158
SC_A_0085              288328.349 9196640.041
SC_A_0085              288328.457 9196639.863
SC_A_0085              288321.720 9196611.158
SC_A_0085              288277.086 9196613.103
SC_A_0085              288250.329 9196635.387
SC_A_0085              288251.590 9196657.158
SC_A_0086              288348.909 9196860.130
SC_A_0086              288328.258 9196768.285
SC_A_0086              288299.181 9196778.824
SC_A_0086              288300.250 9196860.432
SC_A_0086              288306.351 9196863.314
SC_A_0086              288348.909 9196860.130
SC_A_0087              288381.781 9196866.847
SC_A_0087              288369.154 9196859.627
SC_A_0087              288348.909 9196860.130
SC_A_0087              288306.351 9196863.314
SC_A_0087              288301.311 9197083.317
SC_A_0087              288305.487 9197083.317
SC_A_0087              288305.487 9197078.317
SC_A_0087              288310.487 9197078.317
SC_A_0087              288310.487 9197073.317
SC_A_0087              288320.487 9197073.317
SC_A_0087              288320.487 9197068.317
SC_A_0087              288325.487 9197068.317
SC_A_0087              288325.487 9197063.317
SC_A_0087              288369.151 9197063.317
SC_A_0087              288381.781 9196866.847
SC_A_0088              288296.220 9196441.960
SC_A_0088              288301.127 9196536.441
SC_A_0088              288313.807 9196540.617
SC_A_0088              288373.549 9196527.622
SC_A_0088              288361.229 9196402.026
SC_A_0088              288336.757 9196391.478
SC_A_0088              288332.606 9196391.942
SC_A_0088              288326.071 9196400.099
SC_A_0088              288296.220 9196441.960
SC_A_0089              288324.990 9196165.973
SC_A_0089              288325.904 9196172.160
SC_A_0089              288397.474 9196158.697
SC_A_0089              288394.618 9196085.608
SC_A_0089              288313.522 9196061.537
SC_A_0089              288324.990 9196165.973
SC_A_0090              288328.457 9196639.863
SC_A_0090              288395.792 9196629.267
SC_A_0090              288384.842 9196531.417
SC_A_0090              288373.549 9196527.622
SC_A_0090              288313.807 9196540.617
SC_A_0090              288321.720 9196611.158
SC_A_0090              288328.457 9196639.863
SC_A_0091              288299.181 9196778.824
SC_A_0091              288328.258 9196768.285
SC_A_0091              288380.567 9196741.469
SC_A_0091              288382.712 9196737.549
SC_A_0091              288338.152 9196705.287
SC_A_0091              288242.423 9196727.275
SC_A_0091              288299.181 9196778.824
SC_A_0092              288328.258 9196768.285
SC_A_0092              288348.909 9196860.130
SC_A_0092              288369.154 9196859.627
SC_A_0092              288380.567 9196741.469
SC_A_0092              288328.258 9196768.285
SC_A_0093              288930.487 9196103.078
SC_A_0093              288930.487 9196098.317
SC_A_0093              288925.487 9196098.317
SC_A_0093              288925.487 9196099.398
SC_A_0093              288930.487 9196103.078
SC_A_0094              289073.613 9196048.317
SC_A_0094              289020.487 9196048.317
SC_A_0094              289020.487 9196053.317
SC_A_0094              289015.487 9196053.317
SC_A_0094              289015.487 9196058.317
SC_A_0094              289010.487 9196058.317
SC_A_0094              289010.487 9196063.317
SC_A_0094              289005.487 9196063.317
SC_A_0094              289005.487 9196068.317
SC_A_0094              289000.487 9196068.317
SC_A_0094              289000.487 9196073.317
SC_A_0094              288985.487 9196073.317
SC_A_0094              288985.487 9196078.317
SC_A_0094              288975.487 9196078.317
SC_A_0094              288975.487 9196083.317
SC_A_0094              288965.487 9196083.317
SC_A_0094              288965.487 9196093.317
SC_A_0094              288970.487 9196093.317
SC_A_0094              288970.487 9196096.737
SC_A_0094              289073.613 9196048.317
SC_A_0095              288338.152 9196705.287
SC_A_0095              288382.712 9196737.549
SC_A_0095              288400.539 9196731.632
SC_A_0095              288406.250 9196675.176
SC_A_0095              288402.713 9196634.404
SC_A_0095              288395.792 9196629.267
SC_A_0095              288328.457 9196639.863
SC_A_0095              288328.349 9196640.041
SC_A_0095              288338.152 9196705.287
SC_A_0096              288328.632 9196241.156
SC_A_0096              288344.476 9196246.624
SC_A_0096              288407.164 9196237.469
SC_A_0096              288398.475 9196165.960
SC_A_0096              288397.842 9196161.940
SC_A_0096              288326.297 9196177.280
SC_A_0096              288328.632 9196241.156
SC_A_0097              288448.795 9196915.796
SC_A_0097              288429.231 9196866.196
SC_A_0097              288381.781 9196866.847
SC_A_0097              288369.151 9197063.317
SC_A_0097              288415.487 9197063.317
SC_A_0097              288415.487 9197068.317
SC_A_0097              288449.978 9197068.317
SC_A_0097              288448.795 9196915.796
SC_A_0098              288361.229 9196402.026
SC_A_0098              288431.842 9196392.384
SC_A_0098              288426.776 9196343.618
SC_A_0098              288419.541 9196318.616
SC_A_0098              288349.596 9196329.272
SC_A_0098              288336.757 9196391.478
SC_A_0098              288361.229 9196402.026
SC_A_0099              288380.567 9196741.469
SC_A_0099              288369.154 9196859.627
SC_A_0099              288381.781 9196866.847
SC_A_0099              288429.231 9196866.196
SC_A_0099              288446.738 9196854.078
SC_A_0099              288457.793 9196745.841
SC_A_0099              288400.539 9196731.632
SC_A_0099              288382.712 9196737.549
SC_A_0099              288380.567 9196741.469
SC_A_0100              288326.297 9196177.280
SC_A_0100              288397.842 9196161.940
SC_A_0100              288397.474 9196158.697
SC_A_0100              288325.904 9196172.160
SC_A_0100              288326.297 9196177.280
SC_A_0101              288397.842 9196161.940
SC_A_0101              288398.475 9196165.960
SC_A_0101              288468.666 9196156.179
SC_A_0101              288467.528 9196120.511
SC_A_0101              288412.225 9196083.920
SC_A_0101              288410.977 9196083.150
SC_A_0101              288394.618 9196085.608
SC_A_0101              288397.474 9196158.697
SC_A_0101              288397.842 9196161.940
SC_A_0102              288327.820 9196013.027
SC_A_0102              288400.487 9196002.109
SC_A_0102              288400.487 9195998.317
SC_A_0102              288410.487 9195998.317
SC_A_0102              288410.487 9196000.607
SC_A_0102              288430.487 9195997.602
SC_A_0102              288430.487 9195989.933
SC_A_0102              288385.487 9195996.693
SC_A_0102              288385.487 9195998.317
SC_A_0102              288380.487 9195998.317
SC_A_0102              288380.487 9195997.445
SC_A_0102              288335.021 9196004.275
SC_A_0102              288327.820 9196013.027
SC_A_0103              288296.283 9196049.035
SC_A_0103              288313.522 9196061.537
SC_A_0103              288394.618 9196085.608
SC_A_0103              288410.977 9196083.150
SC_A_0103              288414.898 9196078.326
SC_A_0103              288450.487 9196031.390
SC_A_0103              288450.487 9196028.317
SC_A_0103              288445.487 9196028.317
SC_A_0103              288445.487 9196023.317
SC_A_0103              288450.487 9196023.317
SC_A_0103              288450.487 9196018.317
SC_A_0103              288440.487 9196018.317
SC_A_0103              288440.487 9196013.317
SC_A_0103              288435.487 9196013.317
SC_A_0103              288435.487 9196003.317
SC_A_0103              288430.487 9196003.317
SC_A_0103              288430.487 9195997.602
SC_A_0103              288410.487 9196000.607
SC_A_0103              288410.487 9196003.317
SC_A_0103              288400.487 9196003.317
SC_A_0103              288400.487 9196002.109
SC_A_0103              288327.820 9196013.027
SC_A_0103              288296.283 9196049.035
SC_A_0104              288349.596 9196329.272
SC_A_0104              288419.541 9196318.616
SC_A_0104              288420.138 9196241.640
SC_A_0104              288407.164 9196237.469
SC_A_0104              288344.476 9196246.624
SC_A_0104              288349.596 9196329.272
SC_A_0105              288373.549 9196527.622
SC_A_0105              288384.842 9196531.417
SC_A_0105              288436.429 9196523.256
SC_A_0105              288457.420 9196519.121
SC_A_0105              288540.356 9196460.927
SC_A_0105              288497.987 9196420.774
SC_A_0105              288431.842 9196392.384
SC_A_0105              288361.229 9196402.026
SC_A_0105              288373.549 9196527.622
SC_A_0106              288384.842 9196531.417
SC_A_0106              288395.792 9196629.267
SC_A_0106              288402.713 9196634.404
SC_A_0106              288424.220 9196629.544
SC_A_0106              288436.429 9196523.256
SC_A_0106              288384.842 9196531.417
SC_A_0107              288527.589 9196064.449
SC_A_0107              288527.589 9196110.372
SC_A_0107              288540.072 9196119.315
SC_A_0107              288585.694 9196112.068
SC_A_0107              288601.268 9196083.317
SC_A_0107              288600.487 9196083.317
SC_A_0107              288600.487 9196078.317
SC_A_0107              288595.487 9196078.317
SC_A_0107              288595.487 9196073.317
SC_A_0107              288585.487 9196073.317
SC_A_0107              288585.487 9196068.317
SC_A_0107              288575.487 9196068.317
SC_A_0107              288575.487 9196073.317
SC_A_0107              288560.487 9196073.317
SC_A_0107              288560.487 9196068.317
SC_A_0107              288540.487 9196068.317
SC_A_0107              288540.487 9196063.317
SC_A_0107              288527.664 9196063.317
SC_A_0107              288527.589 9196064.449
SC_A_0108              288335.021 9196004.275
SC_A_0108              288380.487 9195997.445
SC_A_0108              288380.487 9195993.317
SC_A_0108              288385.487 9195993.317
SC_A_0108              288385.487 9195996.693
SC_A_0108              288430.487 9195989.933
SC_A_0108              288430.487 9195988.317
SC_A_0108              288375.487 9195988.317
SC_A_0108              288375.487 9195983.317
SC_A_0108              288370.487 9195983.317
SC_A_0108              288370.487 9195978.317
SC_A_0108              288365.487 9195978.317
SC_A_0108              288365.487 9195973.317
SC_A_0108              288360.487 9195973.317
SC_A_0108              288360.487 9195968.611
SC_A_0108              288335.021 9196004.275
SC_A_0109              288414.898 9196078.326
SC_A_0109              288490.487 9196065.568
SC_A_0109              288490.487 9196063.317
SC_A_0109              288485.487 9196063.317
SC_A_0109              288485.487 9196058.317
SC_A_0109              288480.487 9196058.317
SC_A_0109              288480.487 9196053.317
SC_A_0109              288470.487 9196053.317
SC_A_0109              288470.487 9196043.317
SC_A_0109              288465.487 9196043.317
SC_A_0109              288465.487 9196028.317
SC_A_0109              288455.487 9196028.317
SC_A_0109              288455.487 9196033.317
SC_A_0109              288450.487 9196033.317
SC_A_0109              288450.487 9196031.390
SC_A_0109              288414.898 9196078.326
SC_A_0110              288525.487 9196059.661
SC_A_0110              288525.487 9196058.317
SC_A_0110              288520.487 9196058.317
SC_A_0110              288520.487 9196053.317
SC_A_0110              288515.487 9196053.317
SC_A_0110              288515.487 9196061.349
SC_A_0110              288525.487 9196059.661
SC_A_0111              288515.487 9196048.317
SC_A_0111              288510.487 9196048.317
SC_A_0111              288510.487 9196053.317
SC_A_0111              288515.487 9196053.317
SC_A_0111              288515.487 9196048.317
SC_A_0112              288407.164 9196237.469
SC_A_0112              288420.138 9196241.640
SC_A_0112              288473.846 9196234.156
SC_A_0112              288468.666 9196156.179
SC_A_0112              288398.475 9196165.960
SC_A_0112              288407.164 9196237.469
SC_A_0113              288402.713 9196634.404
SC_A_0113              288406.250 9196675.176
SC_A_0113              288477.625 9196663.831
SC_A_0113              288477.146 9196631.779
SC_A_0113              288465.191 9196623.286
SC_A_0113              288424.220 9196629.544
SC_A_0113              288402.713 9196634.404
SC_A_0114              288429.231 9196866.196
SC_A_0114              288448.795 9196915.796
SC_A_0114              288513.014 9196919.725
SC_A_0114              288516.430 9196858.341
SC_A_0114              288446.738 9196854.078
SC_A_0114              288429.231 9196866.196
SC_A_0115              288419.541 9196318.616
SC_A_0115              288426.776 9196343.618
SC_A_0115              288490.905 9196296.361
SC_A_0115              288489.778 9196239.241
SC_A_0115              288473.846 9196234.156
SC_A_0115              288420.138 9196241.640
SC_A_0115              288419.541 9196318.616
SC_A_0116              288436.429 9196523.256
SC_A_0116              288424.220 9196629.544
SC_A_0116              288465.191 9196623.286
SC_A_0116              288457.420 9196519.121
SC_A_0116              288436.429 9196523.256
SC_A_0117              288497.987 9196420.774
SC_A_0117              288497.987 9196331.869
SC_A_0117              288490.905 9196296.361
SC_A_0117              288426.776 9196343.618
SC_A_0117              288431.842 9196392.384
SC_A_0117              288497.987 9196420.774
SC_A_0118              288400.539 9196731.632
SC_A_0118              288457.793 9196745.841
SC_A_0118              288469.375 9196741.760
SC_A_0118              288483.768 9196729.191
SC_A_0118              288481.383 9196681.361
SC_A_0118              288477.625 9196663.831
SC_A_0118              288406.250 9196675.176
SC_A_0118              288400.539 9196731.632
SC_A_0119              288410.977 9196083.150
SC_A_0119              288412.225 9196083.920
SC_A_0119              288480.487 9196072.399
SC_A_0119              288480.487 9196068.317
SC_A_0119              288490.487 9196068.317
SC_A_0119              288490.487 9196065.568
SC_A_0119              288414.898 9196078.326
SC_A_0119              288410.977 9196083.150
SC_A_0120              288527.589 9196064.449
SC_A_0120              288527.664 9196063.317
SC_A_0120              288525.487 9196063.317
SC_A_0120              288525.487 9196059.661
SC_A_0120              288515.487 9196061.349
SC_A_0120              288515.487 9196066.491
SC_A_0120              288527.589 9196064.449
SC_A_0121              288457.420 9196519.121
SC_A_0121              288465.191 9196623.286
SC_A_0121              288477.146 9196631.779
SC_A_0121              288529.951 9196618.013
SC_A_0121              288548.046 9196605.843
SC_A_0121              288599.181 9196526.227
SC_A_0121              288603.487 9196510.815
SC_A_0121              288561.005 9196463.961
SC_A_0121              288540.356 9196460.927
SC_A_0121              288457.420 9196519.121
SC_A_0122              288446.738 9196854.078
SC_A_0122              288516.430 9196858.341
SC_A_0122              288520.332 9196856.278
SC_A_0122              288524.730 9196809.468
SC_A_0122              288469.375 9196741.760
SC_A_0122              288457.793 9196745.841
SC_A_0122              288446.738 9196854.078
SC_A_0123              288489.778 9196239.241
SC_A_0123              288543.524 9196231.112
SC_A_0123              288540.072 9196119.315
SC_A_0123              288527.589 9196110.372
SC_A_0123              288467.528 9196120.511
SC_A_0123              288468.666 9196156.179
SC_A_0123              288473.846 9196234.156
SC_A_0123              288489.778 9196239.241
SC_A_0124              288477.625 9196663.831
SC_A_0124              288481.383 9196681.361
SC_A_0124              288528.839 9196661.557
SC_A_0124              288529.951 9196618.013
SC_A_0124              288477.146 9196631.779
SC_A_0124              288477.625 9196663.831
SC_A_0125              288632.831 9196899.090
SC_A_0125              288632.786 9196899.012
SC_A_0125              288620.092 9196883.609
SC_A_0125              288520.362 9196938.178
SC_A_0125              288513.594 9197058.317
SC_A_0125              288555.487 9197058.317
SC_A_0125              288555.487 9197053.317
SC_A_0125              288575.487 9197053.317
SC_A_0125              288575.487 9197048.317
SC_A_0125              288590.487 9197048.317
SC_A_0125              288590.487 9197043.317
SC_A_0125              288600.487 9197043.317
SC_A_0125              288600.487 9197038.317
SC_A_0125              288615.487 9197038.317
SC_A_0125              288615.487 9197033.317
SC_A_0125              288625.487 9197033.317
SC_A_0125              288625.487 9197028.317
SC_A_0125              288626.139 9197028.317
SC_A_0125              288632.831 9196899.090
SC_A_0126              288449.978 9197068.317
SC_A_0126              288460.487 9197068.317
SC_A_0126              288460.487 9197063.317
SC_A_0126              288510.487 9197063.317
SC_A_0126              288510.487 9197058.317
SC_A_0126              288513.594 9197058.317
SC_A_0126              288520.362 9196938.178
SC_A_0126              288513.014 9196919.725
SC_A_0126              288448.795 9196915.796
SC_A_0126              288449.978 9197068.317
SC_A_0127              288520.332 9196856.278
SC_A_0127              288613.920 9196872.048
SC_A_0127              288628.884 9196766.603
SC_A_0127              288611.257 9196753.012
SC_A_0127              288606.458 9196751.983
SC_A_0127              288524.730 9196809.468
SC_A_0127              288520.332 9196856.278
SC_A_0128              288524.730 9196809.468
SC_A_0128              288606.458 9196751.983
SC_A_0128              288551.956 9196720.855
SC_A_0128              288483.768 9196729.191
SC_A_0128              288469.375 9196741.760
SC_A_0128              288524.730 9196809.468
SC_A_0129              288467.528 9196120.511
SC_A_0129              288527.589 9196110.372
SC_A_0129              288527.589 9196064.449
SC_A_0129              288515.487 9196066.491
SC_A_0129              288515.487 9196073.317
SC_A_0129              288480.487 9196073.317
SC_A_0129              288480.487 9196072.399
SC_A_0129              288412.225 9196083.920
SC_A_0129              288467.528 9196120.511
SC_A_0130              288497.987 9196420.774
SC_A_0130              288540.356 9196460.927
SC_A_0130              288561.005 9196463.961
SC_A_0130              288572.405 9196442.500
SC_A_0130              288569.888 9196327.184
SC_A_0130              288565.326 9196305.899
SC_A_0130              288497.987 9196331.869
SC_A_0130              288497.987 9196420.774
SC_A_0131              288528.839 9196661.557
SC_A_0131              288552.005 9196719.213
SC_A_0131              288568.032 9196662.531
SC_A_0131              288548.046 9196605.843
SC_A_0131              288529.951 9196618.013
SC_A_0131              288528.839 9196661.557
SC_A_0132              288490.905 9196296.361
SC_A_0132              288497.987 9196331.869
SC_A_0132              288565.326 9196305.899
SC_A_0132              288563.468 9196237.436
SC_A_0132              288543.524 9196231.112
SC_A_0132              288489.778 9196239.241
SC_A_0132              288490.905 9196296.361
SC_A_0133              288563.468 9196237.436
SC_A_0133              288617.593 9196228.713
SC_A_0133              288616.113 9196148.578
SC_A_0133              288600.623 9196128.562
SC_A_0133              288598.721 9196126.353
SC_A_0133              288585.694 9196112.068
SC_A_0133              288540.072 9196119.315
SC_A_0133              288543.524 9196231.112
SC_A_0133              288563.468 9196237.436
SC_A_0134              288483.768 9196729.191
SC_A_0134              288551.956 9196720.855
SC_A_0134              288552.005 9196719.213
SC_A_0134              288528.839 9196661.557
SC_A_0134              288481.383 9196681.361
SC_A_0134              288483.768 9196729.191
SC_A_0135              288516.430 9196858.341
SC_A_0135              288513.014 9196919.725
SC_A_0135              288520.362 9196938.178
SC_A_0135              288620.092 9196883.609
SC_A_0135              288613.920 9196872.048
SC_A_0135              288520.332 9196856.278
SC_A_0135              288516.430 9196858.341
SC_A_0136              288551.956 9196720.855
SC_A_0136              288606.458 9196751.983
SC_A_0136              288611.257 9196753.012
SC_A_0136              288626.345 9196661.501
SC_A_0136              288624.387 9196658.054
SC_A_0136              288568.032 9196662.531
SC_A_0136              288552.005 9196719.213
SC_A_0136              288551.956 9196720.855
SC_A_0137              288572.405 9196442.500
SC_A_0137              288645.892 9196370.012
SC_A_0137              288638.299 9196310.641
SC_A_0137              288637.889 9196308.368
SC_A_0137              288569.888 9196327.184
SC_A_0137              288572.405 9196442.500
SC_A_0138              288548.046 9196605.843
SC_A_0138              288568.032 9196662.531
SC_A_0138              288624.387 9196658.054
SC_A_0138              288621.578 9196640.716
SC_A_0138              288599.181 9196526.227
SC_A_0138              288548.046 9196605.843
SC_A_0139              288793.787 9196982.592
SC_A_0139              288778.491 9196950.652
SC_A_0139              288723.530 9196897.892
SC_A_0139              288632.831 9196899.090
SC_A_0139              288626.139 9197028.317
SC_A_0139              288635.487 9197028.317
SC_A_0139              288635.487 9197023.317
SC_A_0139              288640.487 9197023.317
SC_A_0139              288640.487 9197018.317
SC_A_0139              288650.487 9197018.317
SC_A_0139              288650.487 9197013.317
SC_A_0139              288655.487 9197013.317
SC_A_0139              288655.487 9197008.317
SC_A_0139              288670.487 9197008.317
SC_A_0139              288670.487 9197003.317
SC_A_0139              288685.487 9197003.317
SC_A_0139              288685.487 9196998.317
SC_A_0139              288700.487 9196998.317
SC_A_0139              288700.487 9196993.317
SC_A_0139              288715.487 9196993.317
SC_A_0139              288715.487 9196988.317
SC_A_0139              288735.487 9196988.317
SC_A_0139              288735.487 9196993.317
SC_A_0139              288770.487 9196993.317
SC_A_0139              288770.487 9196998.317
SC_A_0139              288785.487 9196998.317
SC_A_0139              288785.487 9197003.317
SC_A_0139              288793.082 9197003.317
SC_A_0139              288793.787 9196982.592
SC_A_0140              288632.786 9196899.012
SC_A_0140              288751.285 9196787.920
SC_A_0140              288704.458 9196753.637
SC_A_0140              288628.884 9196766.603
SC_A_0140              288613.920 9196872.048
SC_A_0140              288620.092 9196883.609
SC_A_0140              288632.786 9196899.012
SC_A_0141              288565.326 9196305.899
SC_A_0141              288569.888 9196327.184
SC_A_0141              288637.889 9196308.368
SC_A_0141              288639.434 9196235.887
SC_A_0141              288617.593 9196228.713
SC_A_0141              288563.468 9196237.436
SC_A_0141              288565.326 9196305.899
SC_A_0142              288755.487 9196113.317
SC_A_0142              288765.487 9196113.317
SC_A_0142              288765.487 9196108.317
SC_A_0142              288770.487 9196108.317
SC_A_0142              288770.487 9196098.317
SC_A_0142              288750.487 9196098.317
SC_A_0142              288750.487 9196083.317
SC_A_0142              288745.487 9196083.317
SC_A_0142              288745.487 9196078.317
SC_A_0142              288730.487 9196078.317
SC_A_0142              288730.487 9196083.317
SC_A_0142              288725.487 9196083.317
SC_A_0142              288725.487 9196088.317
SC_A_0142              288725.057 9196088.317
SC_A_0142              288730.514 9196103.317
SC_A_0142              288735.487 9196103.317
SC_A_0142              288735.487 9196108.317
SC_A_0142              288732.333 9196108.317
SC_A_0142              288765.421 9196199.272
SC_A_0142              288805.487 9196167.782
SC_A_0142              288805.487 9196153.317
SC_A_0142              288800.487 9196153.317
SC_A_0142              288800.487 9196143.317
SC_A_0142              288795.487 9196143.317
SC_A_0142              288795.487 9196138.317
SC_A_0142              288790.487 9196138.317
SC_A_0142              288790.487 9196128.317
SC_A_0142              288765.487 9196128.317
SC_A_0142              288765.487 9196123.317
SC_A_0142              288760.487 9196123.317
SC_A_0142              288760.487 9196118.317
SC_A_0142              288755.487 9196118.317
SC_A_0142              288755.487 9196113.317
SC_A_0143              288585.694 9196112.068
SC_A_0143              288598.721 9196126.353
SC_A_0143              288630.487 9196108.940
SC_A_0143              288630.487 9196108.317
SC_A_0143              288625.487 9196108.317
SC_A_0143              288625.487 9196103.317
SC_A_0143              288615.487 9196103.317
SC_A_0143              288615.487 9196093.317
SC_A_0143              288610.487 9196093.317
SC_A_0143              288610.487 9196088.317
SC_A_0143              288605.487 9196088.317
SC_A_0143              288605.487 9196083.317
SC_A_0143              288601.268 9196083.317
SC_A_0143              288585.694 9196112.068
SC_A_0144              288561.005 9196463.961
SC_A_0144              288603.487 9196510.815
SC_A_0144              288628.475 9196514.670
SC_A_0144              288715.098 9196499.210
SC_A_0144              288747.064 9196483.109
SC_A_0144              288793.503 9196428.045
SC_A_0144              288805.170 9196395.952
SC_A_0144              288745.974 9196349.943
SC_A_0144              288645.892 9196370.012
SC_A_0144              288572.405 9196442.500
SC_A_0144              288561.005 9196463.961
SC_A_0145              288624.387 9196658.054
SC_A_0145              288626.345 9196661.501
SC_A_0145              288696.176 9196660.324
SC_A_0145              288689.015 9196629.153
SC_A_0145              288621.578 9196640.716
SC_A_0145              288624.387 9196658.054
SC_A_0146              288600.623 9196128.562
SC_A_0146              288630.487 9196112.191
SC_A_0146              288630.487 9196108.940
SC_A_0146              288598.721 9196126.353
SC_A_0146              288600.623 9196128.562
SC_A_0147              288599.181 9196526.227
SC_A_0147              288621.578 9196640.716
SC_A_0147              288689.015 9196629.153
SC_A_0147              288683.907 9196602.613
SC_A_0147              288628.475 9196514.670
SC_A_0147              288603.487 9196510.815
SC_A_0147              288599.181 9196526.227
SC_A_0148              288617.593 9196228.713
SC_A_0148              288639.434 9196235.887
SC_A_0148              288713.644 9196227.389
SC_A_0148              288717.136 9196223.682
SC_A_0148              288678.806 9196118.317
SC_A_0148              288671.318 9196118.317
SC_A_0148              288616.113 9196148.578
SC_A_0148              288617.593 9196228.713
SC_A_0149              288616.113 9196148.578
SC_A_0149              288671.318 9196118.317
SC_A_0149              288670.487 9196118.317
SC_A_0149              288670.487 9196113.317
SC_A_0149              288660.487 9196113.317
SC_A_0149              288660.487 9196118.317
SC_A_0149              288635.487 9196118.317
SC_A_0149              288635.487 9196113.317
SC_A_0149              288630.487 9196113.317
SC_A_0149              288630.487 9196112.191
SC_A_0149              288600.623 9196128.562
SC_A_0149              288616.113 9196148.578
SC_A_0150              288717.136 9196223.682
SC_A_0150              288762.717 9196202.642
SC_A_0150              288765.421 9196199.272
SC_A_0150              288732.333 9196108.317
SC_A_0150              288730.487 9196108.317
SC_A_0150              288730.487 9196113.317
SC_A_0150              288725.487 9196113.317
SC_A_0150              288725.487 9196123.317
SC_A_0150              288710.487 9196123.317
SC_A_0150              288710.487 9196128.317
SC_A_0150              288685.487 9196128.317
SC_A_0150              288685.487 9196118.317
SC_A_0150              288678.806 9196118.317
SC_A_0150              288717.136 9196223.682
SC_A_0151              288725.057 9196088.317
SC_A_0151              288715.487 9196088.317
SC_A_0151              288715.487 9196083.317
SC_A_0151              288700.487 9196083.317
SC_A_0151              288700.487 9196093.317
SC_A_0151              288705.487 9196093.317
SC_A_0151              288705.487 9196103.317
SC_A_0151              288710.487 9196103.317
SC_A_0151              288710.487 9196108.317
SC_A_0151              288720.487 9196108.317
SC_A_0151              288720.487 9196103.317
SC_A_0151              288730.514 9196103.317
SC_A_0151              288725.057 9196088.317
SC_A_0152              288638.299 9196310.641
SC_A_0152              288737.579 9196320.573
SC_A_0152              288713.644 9196227.389
SC_A_0152              288639.434 9196235.887
SC_A_0152              288637.889 9196308.368
SC_A_0152              288638.299 9196310.641
SC_A_0153              288611.257 9196753.012
SC_A_0153              288628.884 9196766.603
SC_A_0153              288704.458 9196753.637
SC_A_0153              288718.786 9196682.192
SC_A_0153              288696.176 9196660.324
SC_A_0153              288626.345 9196661.501
SC_A_0153              288611.257 9196753.012
SC_A_0154              288645.892 9196370.012
SC_A_0154              288745.974 9196349.943
SC_A_0154              288737.579 9196320.573
SC_A_0154              288638.299 9196310.641
SC_A_0154              288645.892 9196370.012
SC_A_0155              288689.015 9196629.153
SC_A_0155              288696.176 9196660.324
SC_A_0155              288718.786 9196682.192
SC_A_0155              288788.597 9196640.393
SC_A_0155              288759.475 9196609.848
SC_A_0155              288683.907 9196602.613
SC_A_0155              288689.015 9196629.153
SC_A_0156              288704.458 9196753.637
SC_A_0156              288751.285 9196787.920
SC_A_0156              288757.669 9196791.088
SC_A_0156              288808.004 9196792.740
SC_A_0156              288809.497 9196735.230
SC_A_0156              288799.791 9196640.329
SC_A_0156              288788.597 9196640.393
SC_A_0156              288718.786 9196682.192
SC_A_0156              288704.458 9196753.637
SC_A_0157              288713.644 9196227.389
SC_A_0157              288737.579 9196320.573
SC_A_0157              288745.974 9196349.943
SC_A_0157              288805.170 9196395.952
SC_A_0157              288860.399 9196369.934
SC_A_0157              288826.201 9196275.369
SC_A_0157              288815.611 9196254.169
SC_A_0157              288762.717 9196202.642
SC_A_0157              288717.136 9196223.682
SC_A_0157              288713.644 9196227.389
SC_A_0158              288632.831 9196899.090
SC_A_0158              288723.530 9196897.892
SC_A_0158              288731.925 9196873.523
SC_A_0158              288757.669 9196791.088
SC_A_0158              288751.285 9196787.920
SC_A_0158              288632.786 9196899.012
SC_A_0158              288632.831 9196899.090
SC_A_0159              288683.907 9196602.613
SC_A_0159              288759.475 9196609.848
SC_A_0159              288715.098 9196499.210
SC_A_0159              288628.475 9196514.670
SC_A_0159              288683.907 9196602.613
SC_A_0160              288731.925 9196873.523
SC_A_0160              288795.231 9196875.707
SC_A_0160              288816.111 9196796.670
SC_A_0160              288808.004 9196792.740
SC_A_0160              288757.669 9196791.088
SC_A_0160              288731.925 9196873.523
SC_A_0161              288793.787 9196982.592
SC_A_0161              288849.883 9196922.108
SC_A_0161              288854.424 9196902.302
SC_A_0161              288872.716 9196805.343
SC_A_0161              288816.111 9196796.670
SC_A_0161              288795.231 9196875.707
SC_A_0161              288778.491 9196950.652
SC_A_0161              288793.787 9196982.592
SC_A_0162              288723.530 9196897.892
SC_A_0162              288778.491 9196950.652
SC_A_0162              288795.231 9196875.707
SC_A_0162              288731.925 9196873.523
SC_A_0162              288723.530 9196897.892
SC_A_0163              288715.098 9196499.210
SC_A_0163              288759.475 9196609.848
SC_A_0163              288788.597 9196640.393
SC_A_0163              288799.791 9196640.329
SC_A_0163              288844.218 9196617.627
SC_A_0163              288797.813 9196545.231
SC_A_0163              288747.064 9196483.109
SC_A_0163              288715.098 9196499.210
SC_A_0164              288797.813 9196545.231
SC_A_0164              288862.371 9196514.440
SC_A_0164              288857.072 9196503.890
SC_A_0164              288793.503 9196428.045
SC_A_0164              288747.064 9196483.109
SC_A_0164              288797.813 9196545.231
SC_A_0165              288844.218 9196617.627
SC_A_0165              288886.924 9196615.805
SC_A_0165              288916.761 9196596.830
SC_A_0165              288862.371 9196514.440
SC_A_0165              288797.813 9196545.231
SC_A_0165              288844.218 9196617.627
SC_A_0166              288808.004 9196792.740
SC_A_0166              288816.111 9196796.670
SC_A_0166              288872.716 9196805.343
SC_A_0166              288880.056 9196803.594
SC_A_0166              288884.100 9196672.474
SC_A_0166              288809.497 9196735.230
SC_A_0166              288808.004 9196792.740
SC_A_0167              288860.399 9196369.934
SC_A_0167              288861.664 9196369.788
SC_A_0167              288922.002 9196341.201
SC_A_0167              288926.299 9196336.946
SC_A_0167              288892.152 9196244.421
SC_A_0167              288885.906 9196232.232
SC_A_0167              288826.201 9196275.369
SC_A_0167              288860.399 9196369.934
SC_A_0168              288762.717 9196202.642
SC_A_0168              288815.611 9196254.169
SC_A_0168              288881.560 9196224.346
SC_A_0168              288867.815 9196193.317
SC_A_0168              288865.487 9196193.317
SC_A_0168              288865.487 9196208.317
SC_A_0168              288855.487 9196208.317
SC_A_0168              288855.487 9196228.317
SC_A_0168              288835.487 9196228.317
SC_A_0168              288835.487 9196223.317
SC_A_0168              288830.487 9196223.317
SC_A_0168              288830.487 9196203.317
SC_A_0168              288820.487 9196203.317
SC_A_0168              288820.487 9196193.317
SC_A_0168              288815.487 9196193.317
SC_A_0168              288815.487 9196183.317
SC_A_0168              288810.487 9196183.317
SC_A_0168              288810.487 9196178.317
SC_A_0168              288805.487 9196178.317
SC_A_0168              288805.487 9196167.782
SC_A_0168              288765.421 9196199.272
SC_A_0168              288762.717 9196202.642
SC_A_0169              288925.167 9196949.078
SC_A_0169              288922.610 9196930.570
SC_A_0169              288849.883 9196922.108
SC_A_0169              288793.787 9196982.592
SC_A_0169              288793.082 9197003.317
SC_A_0169              288795.487 9197003.317
SC_A_0169              288795.487 9197008.317
SC_A_0169              288810.487 9197008.317
SC_A_0169              288810.487 9197013.317
SC_A_0169              288820.487 9197013.317
SC_A_0169              288820.487 9197018.317
SC_A_0169              288830.487 9197018.317
SC_A_0169              288830.487 9197023.317
SC_A_0169              288850.487 9197023.317
SC_A_0169              288850.487 9197018.317
SC_A_0169              288860.487 9197018.317
SC_A_0169              288860.487 9197013.317
SC_A_0169              288865.487 9197013.317
SC_A_0169              288865.487 9197008.317
SC_A_0169              288875.487 9197008.317
SC_A_0169              288875.487 9197003.317
SC_A_0169              288900.487 9197003.317
SC_A_0169              288900.487 9196998.317
SC_A_0169              288920.487 9196998.317
SC_A_0169              288920.487 9196993.317
SC_A_0169              288921.477 9196993.317
SC_A_0169              288925.167 9196949.078
SC_A_0170              288887.659 9196646.529
SC_A_0170              288886.924 9196615.805
SC_A_0170              288844.218 9196617.627
SC_A_0170              288799.791 9196640.329
SC_A_0170              288809.497 9196735.230
SC_A_0170              288884.100 9196672.474
SC_A_0170              288887.659 9196646.529
SC_A_0171              288884.100 9196672.474
SC_A_0171              288880.056 9196803.594
SC_A_0171              288933.750 9196811.279
SC_A_0171              288946.537 9196808.349
SC_A_0171              288952.443 9196741.808
SC_A_0171              288887.659 9196646.529
SC_A_0171              288884.100 9196672.474
SC_A_0172              288826.201 9196275.369
SC_A_0172              288885.906 9196232.232
SC_A_0172              288883.885 9196226.895
SC_A_0172              288881.560 9196224.346
SC_A_0172              288815.611 9196254.169
SC_A_0172              288826.201 9196275.369
SC_A_0173              288793.503 9196428.045
SC_A_0173              288857.072 9196503.890
SC_A_0173              288918.072 9196470.258
SC_A_0173              288914.961 9196461.931
SC_A_0173              288861.664 9196369.788
SC_A_0173              288860.399 9196369.934
SC_A_0173              288805.170 9196395.952
SC_A_0173              288793.503 9196428.045
SC_A_0174              288887.659 9196646.529
SC_A_0174              288952.443 9196741.808
SC_A_0174              288986.648 9196650.963
SC_A_0174              288995.090 9196580.015
SC_A_0174              288991.544 9196579.843
SC_A_0174              288916.761 9196596.830
SC_A_0174              288886.924 9196615.805
SC_A_0174              288887.659 9196646.529
SC_A_0175              288881.560 9196224.346
SC_A_0175              288883.885 9196226.895
SC_A_0175              288950.464 9196195.338
SC_A_0175              288948.460 9196163.317
SC_A_0175              288940.487 9196163.317
SC_A_0175              288940.487 9196168.317
SC_A_0175              288935.487 9196168.317
SC_A_0175              288935.487 9196173.317
SC_A_0175              288940.487 9196173.317
SC_A_0175              288940.487 9196183.317
SC_A_0175              288930.487 9196183.317
SC_A_0175              288930.487 9196193.317
SC_A_0175              288920.487 9196193.317
SC_A_0175              288920.487 9196198.317
SC_A_0175              288910.487 9196198.317
SC_A_0175              288910.487 9196203.317
SC_A_0175              288895.487 9196203.317
SC_A_0175              288895.487 9196198.317
SC_A_0175              288900.487 9196198.317
SC_A_0175              288900.487 9196183.317
SC_A_0175              288885.487 9196183.317
SC_A_0175              288885.487 9196188.317
SC_A_0175              288870.487 9196188.317
SC_A_0175              288870.487 9196193.317
SC_A_0175              288867.815 9196193.317
SC_A_0175              288881.560 9196224.346
SC_A_0176              288925.487 9196099.398
SC_A_0176              288925.487 9196113.317
SC_A_0176              288915.487 9196113.317
SC_A_0176              288915.487 9196118.317
SC_A_0176              288895.487 9196118.317
SC_A_0176              288895.487 9196123.317
SC_A_0176              288910.487 9196123.317
SC_A_0176              288910.487 9196138.317
SC_A_0176              288915.487 9196138.317
SC_A_0176              288915.487 9196143.317
SC_A_0176              288920.487 9196143.317
SC_A_0176              288920.487 9196148.317
SC_A_0176              288940.487 9196148.317
SC_A_0176              288940.487 9196138.317
SC_A_0176              288945.487 9196138.317
SC_A_0176              288945.487 9196128.317
SC_A_0176              288940.487 9196128.317
SC_A_0176              288940.487 9196123.317
SC_A_0176              288935.487 9196123.317
SC_A_0176              288935.487 9196108.317
SC_A_0176              288930.487 9196108.317
SC_A_0176              288930.487 9196103.078
SC_A_0176              288925.487 9196099.398
SC_A_0177              288849.883 9196922.108
SC_A_0177              288922.610 9196930.570
SC_A_0177              288927.077 9196921.630
SC_A_0177              288927.575 9196902.664
SC_A_0177              288854.424 9196902.302
SC_A_0177              288849.883 9196922.108
SC_A_0178              288926.299 9196336.946
SC_A_0178              288992.191 9196307.328
SC_A_0178              288957.093 9196212.378
SC_A_0178              288892.152 9196244.421
SC_A_0178              288926.299 9196336.946
SC_A_0179              288862.371 9196514.440
SC_A_0179              288916.761 9196596.830
SC_A_0179              288991.544 9196579.843
SC_A_0179              288918.072 9196470.258
SC_A_0179              288857.072 9196503.890
SC_A_0179              288862.371 9196514.440
SC_A_0180              288892.152 9196244.421
SC_A_0180              288957.093 9196212.378
SC_A_0180              288955.819 9196206.995
SC_A_0180              288950.464 9196195.338
SC_A_0180              288883.885 9196226.895
SC_A_0180              288885.906 9196232.232
SC_A_0180              288892.152 9196244.421
SC_A_0181              288998.248 9196945.849
SC_A_0181              288925.167 9196949.078
SC_A_0181              288921.477 9196993.317
SC_A_0181              288940.487 9196993.317
SC_A_0181              288940.487 9196988.317
SC_A_0181              288975.487 9196988.317
SC_A_0181              288975.487 9196993.317
SC_A_0181              288990.487 9196993.317
SC_A_0181              288990.487 9196998.317
SC_A_0181              289005.487 9196998.317
SC_A_0181              289005.487 9196993.317
SC_A_0181              289010.487 9196993.317
SC_A_0181              289010.487 9196988.317
SC_A_0181              289015.487 9196988.317
SC_A_0181              289015.487 9196985.468
SC_A_0181              288998.248 9196945.849
SC_A_0182              288933.750 9196811.279
SC_A_0182              288927.575 9196902.664
SC_A_0182              288927.077 9196921.630
SC_A_0182              288994.136 9196923.127
SC_A_0182              289026.643 9196820.175
SC_A_0182              288946.537 9196808.349
SC_A_0182              288933.750 9196811.279
SC_A_0183              288854.424 9196902.302
SC_A_0183              288927.575 9196902.664
SC_A_0183              288933.750 9196811.279
SC_A_0183              288880.056 9196803.594
SC_A_0183              288872.716 9196805.343
SC_A_0183              288854.424 9196902.302
SC_A_0184              288918.072 9196470.258
SC_A_0184              288991.544 9196579.843
SC_A_0184              288995.090 9196580.015
SC_A_0184              289060.543 9196561.635
SC_A_0184              289061.269 9196561.164
SC_A_0184              288980.540 9196437.021
SC_A_0184              288914.961 9196461.931
SC_A_0184              288918.072 9196470.258
SC_A_0185              288861.664 9196369.788
SC_A_0185              288914.961 9196461.931
SC_A_0185              288980.540 9196437.021
SC_A_0185              288975.030 9196424.175
SC_A_0185              288922.002 9196341.201
SC_A_0185              288861.664 9196369.788
SC_A_0186              288955.819 9196206.995
SC_A_0186              288980.260 9196202.597
SC_A_0186              289001.657 9196193.317
SC_A_0186              288975.487 9196193.317
SC_A_0186              288975.487 9196188.317
SC_A_0186              288970.487 9196188.317
SC_A_0186              288970.487 9196178.317
SC_A_0186              288965.487 9196178.317
SC_A_0186              288965.487 9196168.317
SC_A_0186              288960.487 9196168.317
SC_A_0186              288960.487 9196163.317
SC_A_0186              288948.460 9196163.317
SC_A_0186              288950.464 9196195.338
SC_A_0186              288955.819 9196206.995
SC_A_0187              288946.537 9196808.349
SC_A_0187              289026.643 9196820.175
SC_A_0187              289029.595 9196819.617
SC_A_0187              289028.682 9196788.371
SC_A_0187              288986.648 9196650.963
SC_A_0187              288952.443 9196741.808
SC_A_0187              288946.537 9196808.349
SC_A_0188              288922.610 9196930.570
SC_A_0188              288925.167 9196949.078
SC_A_0188              288998.248 9196945.849
SC_A_0188              288994.136 9196923.127
SC_A_0188              288927.077 9196921.630
SC_A_0188              288922.610 9196930.570
SC_A_0189              288992.191 9196307.328
SC_A_0189              288992.219 9196307.327
SC_A_0189              289043.084 9196282.314
SC_A_0189              289014.848 9196207.873
SC_A_0189              288980.260 9196202.597
SC_A_0189              288955.819 9196206.995
SC_A_0189              288957.093 9196212.378
SC_A_0189              288992.191 9196307.328
SC_A_0190              288922.002 9196341.201
SC_A_0190              288975.030 9196424.175
SC_A_0190              289043.950 9196396.616
SC_A_0190              288992.219 9196307.327
SC_A_0190              288992.191 9196307.328
SC_A_0190              288926.299 9196336.946
SC_A_0190              288922.002 9196341.201
SC_A_0191              289029.595 9196819.617
SC_A_0191              289048.870 9196822.682
SC_A_0191              289076.521 9196818.906
SC_A_0191              289090.354 9196816.343
SC_A_0191              289095.447 9196743.605
SC_A_0191              289062.585 9196604.631
SC_A_0191              289028.682 9196788.371
SC_A_0191              289029.595 9196819.617
SC_A_0192              288998.248 9196945.849
SC_A_0192              289015.487 9196985.468
SC_A_0192              289015.487 9196983.317
SC_A_0192              289020.487 9196983.317
SC_A_0192              289020.487 9196973.317
SC_A_0192              289025.487 9196973.317
SC_A_0192              289025.487 9196968.317
SC_A_0192              289030.487 9196968.317
SC_A_0192              289030.487 9196963.317
SC_A_0192              289035.487 9196963.317
SC_A_0192              289035.487 9196958.317
SC_A_0192              289040.487 9196958.317
SC_A_0192              289040.487 9196953.317
SC_A_0192              289045.487 9196953.317
SC_A_0192              289045.487 9196948.317
SC_A_0192              289050.487 9196948.317
SC_A_0192              289050.487 9196943.317
SC_A_0192              289055.487 9196943.317
SC_A_0192              289055.487 9196938.317
SC_A_0192              289060.487 9196938.317
SC_A_0192              289060.487 9196933.317
SC_A_0192              289061.122 9196933.317
SC_A_0192              289048.870 9196822.682
SC_A_0192              289029.595 9196819.617
SC_A_0192              289026.643 9196820.175
SC_A_0192              288994.136 9196923.127
SC_A_0192              288998.248 9196945.849
SC_A_0193              289060.543 9196561.635
SC_A_0193              289062.585 9196604.631
SC_A_0193              289095.447 9196743.605
SC_A_0193              289146.449 9196687.377
SC_A_0193              289129.376 9196536.704
SC_A_0193              289061.269 9196561.164
SC_A_0193              289060.543 9196561.635
SC_A_0194              288986.648 9196650.963
SC_A_0194              289028.682 9196788.371
SC_A_0194              289062.585 9196604.631
SC_A_0194              289060.543 9196561.635
SC_A_0194              288995.090 9196580.015
SC_A_0194              288986.648 9196650.963
SC_A_0195              288970.487 9196096.737
SC_A_0195              288970.487 9196098.317
SC_A_0195              288990.487 9196098.317
SC_A_0195              288990.487 9196093.317
SC_A_0195              289005.487 9196093.317
SC_A_0195              289005.487 9196098.317
SC_A_0195              289010.487 9196098.317
SC_A_0195              289010.487 9196093.317
SC_A_0195              289015.487 9196093.317
SC_A_0195              289015.487 9196088.317
SC_A_0195              289100.487 9196088.317
SC_A_0195              289100.487 9196078.317
SC_A_0195              289095.487 9196078.317
SC_A_0195              289095.487 9196068.317
SC_A_0195              289090.487 9196068.317
SC_A_0195              289090.487 9196058.317
SC_A_0195              289085.487 9196058.317
SC_A_0195              289085.487 9196053.317
SC_A_0195              289080.487 9196053.317
SC_A_0195              289080.487 9196048.317
SC_A_0195              289073.613 9196048.317
SC_A_0195              288970.487 9196096.737
SC_A_0196              288980.540 9196437.021
SC_A_0196              289061.269 9196561.164
SC_A_0196              289129.376 9196536.704
SC_A_0196              289131.618 9196535.316
SC_A_0196              289045.043 9196398.004
SC_A_0196              289043.950 9196396.616
SC_A_0196              288975.030 9196424.175
SC_A_0196              288980.540 9196437.021
SC_A_0197              289014.848 9196207.873
SC_A_0197              289043.084 9196282.314
SC_A_0197              289083.578 9196272.894
SC_A_0197              289054.105 9196193.317
SC_A_0197              289011.636 9196193.317
SC_A_0197              289014.848 9196207.873
SC_A_0198              289014.848 9196207.873
SC_A_0198              289011.636 9196193.317
SC_A_0198              289001.657 9196193.317
SC_A_0198              288980.260 9196202.597
SC_A_0198              289014.848 9196207.873
SC_A_0199              288992.219 9196307.327
SC_A_0199              289043.950 9196396.616
SC_A_0199              289045.043 9196398.004
SC_A_0199              289129.747 9196319.019
SC_A_0199              289122.128 9196272.890
SC_A_0199              289083.578 9196272.894
SC_A_0199              289043.084 9196282.314
SC_A_0199              288992.219 9196307.327
SC_A_0200              289076.521 9196818.906
SC_A_0200              289048.870 9196822.682
SC_A_0200              289061.122 9196933.317
SC_A_0200              289070.487 9196933.317
SC_A_0200              289070.487 9196928.317
SC_A_0200              289075.487 9196928.317
SC_A_0200              289075.487 9196923.317
SC_A_0200              289090.487 9196923.317
SC_A_0200              289090.487 9196918.317
SC_A_0200              289095.086 9196918.317
SC_A_0200              289076.521 9196818.906
SC_A_0201              289122.128 9196272.890
SC_A_0201              289129.747 9196319.019
SC_A_0201              289174.855 9196521.203
SC_A_0201              289187.157 9196521.805
SC_A_0201              289245.487 9196512.763
SC_A_0201              289245.487 9196463.317
SC_A_0201              289240.487 9196463.317
SC_A_0201              289240.487 9196393.317
SC_A_0201              289235.487 9196393.317
SC_A_0201              289235.487 9196383.317
SC_A_0201              289230.487 9196383.317
SC_A_0201              289230.487 9196378.317
SC_A_0201              289225.487 9196378.317
SC_A_0201              289225.487 9196373.317
SC_A_0201              289220.487 9196373.317
SC_A_0201              289220.487 9196363.317
SC_A_0201              289215.487 9196363.317
SC_A_0201              289215.487 9196358.317
SC_A_0201              289210.487 9196358.317
SC_A_0201              289210.487 9196353.317
SC_A_0201              289205.487 9196353.317
SC_A_0201              289205.487 9196343.317
SC_A_0201              289200.487 9196343.317
SC_A_0201              289200.487 9196333.317
SC_A_0201              289195.487 9196333.317
SC_A_0201              289195.487 9196323.317
SC_A_0201              289190.487 9196323.317
SC_A_0201              289190.487 9196313.317
SC_A_0201              289185.487 9196313.317
SC_A_0201              289185.487 9196303.317
SC_A_0201              289180.487 9196303.317
SC_A_0201              289180.487 9196293.317
SC_A_0201              289175.487 9196293.317
SC_A_0201              289175.487 9196288.317
SC_A_0201              289170.487 9196288.317
SC_A_0201              289170.487 9196278.317
SC_A_0201              289165.487 9196278.317
SC_A_0201              289165.487 9196268.317
SC_A_0201              289160.487 9196268.317
SC_A_0201              289160.487 9196258.317
SC_A_0201              289155.487 9196258.317
SC_A_0201              289155.487 9196248.317
SC_A_0201              289154.154 9196248.317
SC_A_0201              289122.128 9196272.890
SC_A_0202              289083.578 9196272.894
SC_A_0202              289122.128 9196272.890
SC_A_0202              289154.154 9196248.317
SC_A_0202              289150.487 9196248.317
SC_A_0202              289150.487 9196238.317
SC_A_0202              289145.487 9196238.317
SC_A_0202              289145.487 9196223.317
SC_A_0202              289140.487 9196223.317
SC_A_0202              289140.487 9196213.317
SC_A_0202              289135.487 9196213.317
SC_A_0202              289135.487 9196198.317
SC_A_0202              289130.487 9196198.317
SC_A_0202              289130.487 9196163.317
SC_A_0202              289125.487 9196163.317
SC_A_0202              289125.487 9196153.317
SC_A_0202              289120.487 9196153.317
SC_A_0202              289120.487 9196158.317
SC_A_0202              289115.487 9196158.317
SC_A_0202              289115.487 9196163.317
SC_A_0202              289110.487 9196163.317
SC_A_0202              289110.487 9196168.317
SC_A_0202              289105.487 9196168.317
SC_A_0202              289105.487 9196173.317
SC_A_0202              289075.487 9196173.317
SC_A_0202              289075.487 9196178.317
SC_A_0202              289070.487 9196178.317
SC_A_0202              289070.487 9196183.317
SC_A_0202              289065.487 9196183.317
SC_A_0202              289065.487 9196188.317
SC_A_0202              289060.487 9196188.317
SC_A_0202              289060.487 9196193.317
SC_A_0202              289054.105 9196193.317
SC_A_0202              289083.578 9196272.894
SC_A_0203              289090.354 9196816.343
SC_A_0203              289076.521 9196818.906
SC_A_0203              289095.086 9196918.317
SC_A_0203              289105.487 9196918.317
SC_A_0203              289105.487 9196913.317
SC_A_0203              289120.487 9196913.317
SC_A_0203              289120.487 9196908.317
SC_A_0203              289125.487 9196908.317
SC_A_0203              289125.487 9196898.317
SC_A_0203              289130.487 9196898.317
SC_A_0203              289130.487 9196883.317
SC_A_0203              289135.487 9196883.317
SC_A_0203              289135.487 9196863.317
SC_A_0203              289140.487 9196863.317
SC_A_0203              289140.487 9196848.317
SC_A_0203              289145.487 9196848.317
SC_A_0203              289145.487 9196828.317
SC_A_0203              289150.487 9196828.317
SC_A_0203              289150.487 9196825.963
SC_A_0203              289090.354 9196816.343
SC_A_0204              289131.618 9196535.316
SC_A_0204              289174.855 9196521.203
SC_A_0204              289129.747 9196319.019
SC_A_0204              289045.043 9196398.004
SC_A_0204              289131.618 9196535.316
SC_A_0205              289129.376 9196536.704
SC_A_0205              289146.449 9196687.377
SC_A_0205              289187.249 9196773.317
SC_A_0205              289190.487 9196773.317
SC_A_0205              289190.487 9196768.317
SC_A_0205              289195.487 9196768.317
SC_A_0205              289195.487 9196763.317
SC_A_0205              289200.487 9196763.317
SC_A_0205              289200.487 9196758.317
SC_A_0205              289205.487 9196758.317
SC_A_0205              289205.487 9196748.317
SC_A_0205              289210.487 9196748.317
SC_A_0205              289210.487 9196743.317
SC_A_0205              289215.487 9196743.317
SC_A_0205              289215.487 9196733.317
SC_A_0205              289220.487 9196733.317
SC_A_0205              289220.487 9196728.317
SC_A_0205              289220.801 9196728.317
SC_A_0205              289219.366 9196698.687
SC_A_0205              289187.157 9196521.805
SC_A_0205              289174.855 9196521.203
SC_A_0205              289131.618 9196535.316
SC_A_0205              289129.376 9196536.704
SC_A_0206              289219.366 9196698.687
SC_A_0206              289220.801 9196728.317
SC_A_0206              289260.487 9196728.317
SC_A_0206              289260.487 9196733.317
SC_A_0206              289305.487 9196733.317
SC_A_0206              289305.487 9196723.317
SC_A_0206              289300.487 9196723.317
SC_A_0206              289300.487 9196713.317
SC_A_0206              289295.487 9196713.317
SC_A_0206              289295.487 9196703.317
SC_A_0206              289290.487 9196703.317
SC_A_0206              289290.487 9196693.317
SC_A_0206              289285.487 9196693.317
SC_A_0206              289285.487 9196688.317
SC_A_0206              289280.487 9196688.317
SC_A_0206              289280.487 9196682.996
SC_A_0206              289219.366 9196698.687
SC_A_0207              289090.354 9196816.343
SC_A_0207              289150.487 9196825.963
SC_A_0207              289150.487 9196808.317
SC_A_0207              289155.487 9196808.317
SC_A_0207              289155.487 9196803.317
SC_A_0207              289160.487 9196803.317
SC_A_0207              289160.487 9196798.317
SC_A_0207              289165.487 9196798.317
SC_A_0207              289165.487 9196788.317
SC_A_0207              289170.487 9196788.317
SC_A_0207              289170.487 9196783.317
SC_A_0207              289175.487 9196783.317
SC_A_0207              289175.487 9196778.317
SC_A_0207              289180.487 9196778.317
SC_A_0207              289180.487 9196773.317
SC_A_0207              289187.249 9196773.317
SC_A_0207              289146.449 9196687.377
SC_A_0207              289095.447 9196743.605
SC_A_0207              289090.354 9196816.343
SC_A_0208              289187.157 9196521.805
SC_A_0208              289219.366 9196698.687
SC_A_0208              289280.487 9196682.996
SC_A_0208              289280.487 9196678.317
SC_A_0208              289275.487 9196678.317
SC_A_0208              289275.487 9196673.317
SC_A_0208              289270.487 9196673.317
SC_A_0208              289270.487 9196668.317
SC_A_0208              289250.487 9196668.317
SC_A_0208              289250.487 9196663.317
SC_A_0208              289245.487 9196663.317
SC_A_0208              289245.487 9196653.317
SC_A_0208              289240.487 9196653.317
SC_A_0208              289240.487 9196643.317
SC_A_0208              289235.487 9196643.317
SC_A_0208              289235.487 9196628.317
SC_A_0208              289230.487 9196628.317
SC_A_0208              289230.487 9196613.317
SC_A_0208              289225.487 9196613.317
SC_A_0208              289225.487 9196598.317
SC_A_0208              289220.487 9196598.317
SC_A_0208              289220.487 9196573.317
SC_A_0208              289225.487 9196573.317
SC_A_0208              289225.487 9196568.317
SC_A_0208              289230.487 9196568.317
SC_A_0208              289230.487 9196563.317
SC_A_0208              289235.487 9196563.317
SC_A_0208              289235.487 9196558.317
SC_A_0208              289240.487 9196558.317
SC_A_0208              289240.487 9196548.317
SC_A_0208              289245.487 9196548.317
SC_A_0208              289245.487 9196543.317
SC_A_0208              289250.487 9196543.317
SC_A_0208              289250.487 9196533.317
SC_A_0208              289245.487 9196533.317
SC_A_0208              289245.487 9196512.763
SC_A_0208              289187.157 9196521.805

[COORDINATES]
;;Node                 X-Coord Y-Coord
N_A_0001               289131.350 9196722.473
N_A_0002               289100.018 9196918.317
N_A_0003               289062.841 9196717.675
N_A_0004               289029.576 9196926.843
N_A_0005               288990.450 9196719.792
N_A_0006               288962.987 9196905.817
N_A_0007               288918.907 9196713.442
N_A_0008               288892.061 9196901.025
N_A_0009               288892.047 9196903.952
N_A_0010               288846.834 9196711.219
N_A_0011               288819.839 9196887.399
N_A_0012               288773.456 9196709.314
N_A_0013               288768.060 9196873.720
N_A_0014               288767.987 9196875.817
N_A_0015               288657.886 9196686.137
N_A_0016               288683.050 9196832.801
N_A_0017               288588.565 9196674.707
N_A_0018               288530.808 9196775.834
N_A_0019               288490.558 9196808.740
N_A_0020               288518.186 9196672.590
N_A_0021               288443.891 9196676.294
N_A_0022               288313.102 9196746.144
N_A_0023               289031.077 9196193.317
N_A_0024               288993.047 9196207.743
N_A_0025               288926.769 9196232.241
N_A_0026               288857.923 9196257.649
N_A_0027               288790.482 9196282.038
N_A_0028               288720.304 9196130.008
N_A_0029               288852.987 9196250.817
N_A_0030               288842.813 9196228.317
N_A_0031               288922.879 9196224.358
N_A_0032               288910.536 9196198.317
N_A_0033               288993.999 9196201.498
N_A_0034               288990.451 9196193.317
N_A_0035               289030.796 9196088.317
N_A_0036               289015.487 9196055.712
N_A_0037               289200.392 9196346.199
N_A_0038               289071.577 9196178.317
N_A_0039               289071.593 9196367.472
N_A_0040               289004.918 9196406.101
N_A_0041               288946.074 9196443.707
N_A_0042               288883.650 9196479.814
N_A_0043               288828.723 9196525.852
N_A_0044               288654.519 9196153.939
N_A_0045               289255.295 9196694.371
N_A_0046               288891.618 9196494.265
N_A_0047               289112.987 9196705.817
N_A_0048               288950.327 9196454.903
N_A_0049               289183.187 9196697.863
N_A_0050               289009.139 9196416.658
N_A_0051               289252.932 9196685.163
N_A_0052               289077.354 9196373.650
N_A_0053               289022.003 9196710.140
N_A_0054               288720.695 9196621.194
N_A_0055               288938.394 9196700.191
N_A_0056               288832.326 9196533.407
N_A_0057               288839.546 9196702.555
N_A_0058               288544.164 9196662.152
N_A_0059               288260.502 9196418.886
N_A_0060               288265.668 9196471.535
N_A_0061               288274.150 9196605.599
N_A_0062               288186.948 9196436.348
N_A_0063               288192.978 9196476.304
N_A_0064               288214.524 9196619.085
N_A_0065               288214.865 9196621.349
N_A_0066               288118.685 9196437.407
N_A_0067               288125.270 9196477.602
N_A_0068               288149.531 9196625.708
N_A_0069               288048.356 9196475.817
N_A_0070               288088.229 9196685.275
N_A_0071               287974.276 9196476.406
N_A_0072               288012.987 9196691.870
N_A_0073               287966.708 9196474.131
N_A_0074               287808.378 9196545.817
N_A_0075               287810.679 9196615.781
N_A_0076               287813.056 9196688.038
N_A_0077               287822.485 9196762.559
N_A_0078               288040.767 9196476.149
N_A_0079               288116.967 9196476.572
N_A_0080               288183.558 9196474.244
N_A_0081               288258.911 9196471.280
N_A_0082               288329.672 9196468.211
N_A_0083               288405.045 9196460.817
N_A_0084               288358.314 9196599.891
N_A_0085               288369.147 9196668.734
N_A_0086               288387.679 9196333.640
N_A_0087               288431.071 9196592.933
N_A_0088               288441.689 9196662.441
N_A_0089               288462.987 9196325.817
N_A_0090               288513.503 9196661.369
N_A_0091               288494.430 9196588.205
N_A_0092               288425.850 9196592.333
N_A_0093               288283.539 9196608.278
N_A_0094               288532.987 9196325.817
N_A_0095               288586.385 9196647.266
N_A_0096               288606.693 9196324.208
N_A_0097               288656.644 9196633.522
N_A_0098               288657.038 9196635.817
N_A_0099               288672.302 9196315.817
N_A_0100               288772.658 9196571.653
N_A_0101               288691.155 9196409.834
N_A_0102               288723.552 9196591.349
N_A_0103               287999.771 9196687.198
N_A_0104               287994.850 9196612.850
N_A_0105               287808.426 9196615.817
N_A_0106               287979.874 9196542.999
N_A_0107               287977.165 9196470.398
N_A_0108               287966.476 9196401.818
N_A_0109               287802.592 9196401.077
N_A_0110               288118.241 9196430.445
N_A_0111               288111.616 9196399.055
N_A_0112               288102.799 9196334.639
N_A_0113               287964.041 9196395.923
N_A_0114               287955.183 9196331.746
N_A_0115               287806.773 9196467.678
N_A_0116               287801.231 9196328.765
N_A_0117               287953.926 9196325.817
N_A_0118               287800.589 9196255.822
N_A_0119               287941.922 9196248.461
N_A_0120               287933.286 9196185.690
N_A_0121               287932.987 9196183.517
N_A_0122               288028.706 9196331.117
N_A_0123               288002.987 9196185.817
N_A_0124               288099.191 9196329.847
N_A_0125               288077.987 9196185.817
N_A_0126               288171.766 9196326.037
N_A_0127               288147.919 9196179.321
N_A_0128               288243.839 9196324.132
N_A_0129               288221.069 9196175.105
N_A_0130               288312.895 9196318.205
N_A_0131               288288.450 9196173.556
N_A_0132               288287.987 9196170.817
N_A_0133               288384.650 9196313.760
N_A_0134               288363.771 9196170.803
N_A_0135               288363.132 9196167.824
N_A_0136               288362.163 9196162.672
N_A_0137               288454.502 9196314.303
N_A_0138               288433.328 9196162.350
N_A_0139               288432.987 9196159.904
N_A_0140               288527.987 9196312.853
N_A_0141               288504.509 9196157.622
N_A_0142               288602.987 9196310.817
N_A_0143               288577.931 9196155.355
N_A_0144               288258.814 9196411.445
N_A_0145               288243.446 9196328.885
N_A_0146               288185.789 9196427.320
N_A_0147               288172.034 9196330.996
N_A_0148               287798.042 9195933.381
N_A_0149               287793.633 9196026.781
N_A_0150               287796.256 9196095.835
N_A_0151               287800.075 9196185.806
N_A_0152               287910.082 9196102.912
N_A_0153               287892.498 9196020.038
N_A_0154               287875.820 9195935.817
N_A_0155               287939.095 9195878.317
N_A_0156               288025.086 9195928.317
N_A_0157               288029.195 9195948.317
N_A_0158               288030.222 9195953.317
N_A_0159               288077.510 9196183.492
N_A_0160               288095.992 9195893.317
N_A_0161               288100.509 9195918.199
N_A_0162               288163.035 9195868.317
N_A_0163               288246.346 9195928.317
N_A_0164               288326.682 9195930.817
N_A_0165               288407.208 9195988.317
N_A_0166               288408.711 9195998.317
N_A_0167               288409.462 9196003.317
N_A_0168               288488.591 9196063.317
N_A_0169               288489.434 9196068.317
N_A_0170               288490.278 9196073.317
N_A_0171               288564.899 9196073.317
N_A_0172               288629.511 9196108.317
N_A_0173               288630.487 9196110.098
N_A_0174               288632.252 9196113.317
N_A_0175               288340.704 9196927.233
N_A_0176               288337.387 9196793.515
N_A_0177               288414.787 9196931.996
N_A_0178               288412.987 9196800.817
N_A_0179               288483.050 9196931.467
N_A_0180               288484.705 9196904.419
N_A_0181               288542.846 9196907.654
N_A_0182               288558.192 9196935.700
N_A_0183               288558.439 9196815.117
N_A_0184               288703.290 9196943.214
N_A_0185               288702.100 9196853.121
N_A_0186               288962.987 9196955.817
N_A_0187               288962.246 9196939.029
N_A_0188               288886.752 9196949.458
N_A_0189               288330.809 9196794.994
N_A_0190               288267.987 9196795.817
N_A_0191               288297.784 9196679.456
N_A_0192               288755.487 9196117.208
N_A_0193               287779.863 9196186.096
N_A_0194               289090.487 9196920.097
N_A_0195               287650.487 9196719.675
N_A_0196               288672.654 9196312.303
N_A_0197               288283.934 9196617.348
N_A_0198               288269.108 9196925.593
N_A_0199               288193.093 9196919.878
N_A_0200               288195.738 9196792.349

[VERTICES]
;;Link                 X-Coord Y-Coord
L_A_0001               289122.354 9196807.140
L_A_0001               289108.596 9196881.223
L_A_0002               289051.411 9196801.495
L_A_0002               289034.901 9196894.205
L_A_0003               288982.407 9196778.635
L_A_0003               288970.130 9196857.375
L_A_0004               288900.280 9196837.902
L_A_0006               288834.134 9196808.586
L_A_0007               288770.281 9196809.327
L_A_0009               288685.826 9196808.692
L_A_0009               288678.206 9196774.084
L_A_0010               288595.974 9196736.090
L_A_0010               288599.678 9196775.778
L_A_0010               288584.332 9196781.599
L_A_0010               288545.173 9196776.836
L_A_0011               288522.419 9196775.249
L_A_0011               288498.607 9196777.894
L_A_0012               288526.653 9196738.207
L_A_0013               288454.474 9196734.714
L_A_0013               288452.987 9196745.817
L_A_0013               288434.154 9196747.838
L_A_0013               288405.706 9196750.272
L_A_0013               288385.386 9196748.049
L_A_0013               288384.433 9196738.842
L_A_0013               288357.446 9196739.477
L_A_0016               288862.987 9196255.817
L_A_0018               288769.526 9196238.223
L_A_0018               288790.482 9196282.038
L_A_0023               289141.126 9196347.046
L_A_0023               289115.726 9196273.386
L_A_0023               289083.552 9196208.192
L_A_0024               289028.201 9196282.805
L_A_0024               289001.743 9196221.951
L_A_0025               288966.289 9196321.963
L_A_0025               288935.597 9196248.938
L_A_0026               288923.849 9196404.337
L_A_0026               288883.844 9196314.167
L_A_0027               288805.672 9196318.128
L_A_0027               288841.105 9196390.279
L_A_0028               288680.132 9196219.146
L_A_0028               288699.182 9196257.246
L_A_0028               288721.407 9196298.521
L_A_0028               288733.473 9196331.541
L_A_0028               288743.633 9196349.956
L_A_0028               288782.368 9196428.062
L_A_0028               288795.703 9196461.717
L_A_0029               289192.748 9196712.151
L_A_0029               289126.073 9196713.738
L_A_0029               289077.389 9196713.209
L_A_0029               289031.352 9196712.151
L_A_0029               288952.506 9196585.679
L_A_0029               288935.572 9196562.925
L_A_0030               289045.604 9196597.321
L_A_0030               288977.341 9196498.367
L_A_0031               289158.317 9196639.655
L_A_0031               289126.037 9196589.384
L_A_0031               289080.000 9196522.179
L_A_0031               289044.546 9196467.146
L_A_0032               289208.058 9196585.256
L_A_0032               289150.987 9196505.817
L_A_0032               289107.305 9196436.243
L_A_0033               288952.153 9196708.870
L_A_0033               288850.987 9196705.817
L_A_0033               288813.617 9196637.115
L_A_0033               288787.987 9196625.817
L_A_0034               288873.836 9196597.533
L_A_0035               288753.186 9196693.665
L_A_0035               288657.936 9196679.695
L_A_0035               288588.720 9196666.995
L_A_0037               288274.261 9196559.115
L_A_0037               288281.669 9196600.390
L_A_0045               287804.954 9196473.453
L_A_0047               287813.056 9196688.038
L_A_0048               287815.342 9196742.373
L_A_0054               288337.987 9196465.817
L_A_0054               288358.327 9196596.162
L_A_0058               288475.380 9196424.904
L_A_0058               288486.810 9196489.992
L_A_0058               288512.732 9196640.817
L_A_0062               288551.474 9196435.995
L_A_0062               288566.079 9196525.212
L_A_0062               288583.621 9196630.173
L_A_0063               288619.604 9196412.262
L_A_0063               288625.954 9196449.938
L_A_0063               288636.771 9196517.608
L_A_0065               288753.068 9196526.675
L_A_0065               288714.333 9196438.092
L_A_0065               288692.987 9196400.817
L_A_0065               288679.990 9196349.583
L_A_0066               288711.411 9196545.817
L_A_0066               288701.315 9196466.667
L_A_0072               287966.476 9196401.818
L_A_0073               288112.987 9196405.817
L_A_0078               287941.605 9196254.388
L_A_0097               287793.384 9196035.817
L_A_0099               287841.067 9196100.817
L_A_0101               287917.987 9196110.728
L_A_0102               287967.989 9196006.550
L_A_0126               288695.670 9196878.868
L_A_0132               288999.566 9196423.180
L_A_0132               288959.878 9196447.310
L_A_0133               288925.588 9196472.075
L_A_0134               288886.218 9196497.792
L_A_0134               288855.738 9196517.477
L_A_0135               288791.497 9196561.187
L_A_0136               288768.637 9196573.887
L_A_0136               288733.395 9196588.492
L_A_0137               288723.552 9196591.349
L_A_0138               288671.165 9196631.037
L_A_0139               288635.922 9196637.069
L_A_0139               288593.694 9196644.689
L_A_0141               288544.164 9196662.152
L_A_0142               288496.486 9196660.935
L_A_0142               288466.324 9196661.464
L_A_0143               288432.986 9196662.787
L_A_0143               288380.863 9196667.285
L_A_0144               288329.534 9196673.635
L_A_0148               288532.987 9196155.817
L_A_0149               288452.987 9196160.817
L_A_0151               288290.125 9196173.518
L_A_0153               288221.069 9196175.105
L_A_0153               288175.031 9196177.222
L_A_0154               288122.987 9196180.817
L_A_0155               288037.987 9196185.817
L_A_0156               287997.987 9196185.817
L_A_0157               287834.000 9196185.495
L_A_0157               287811.006 9196185.750
L_A_0158               287797.987 9196185.817
L_A_0158               287792.890 9196185.951
L_A_0158               287788.135 9196186.004
L_A_0158               287783.680 9196186.054
L_A_0159               289034.212 9196925.906
L_A_0160               288992.302 9196934.373
L_A_0161               288962.246 9196939.029
L_A_0162               288962.987 9196905.817
L_A_0163               288887.987 9196900.817
L_A_0163               288854.502 9196897.332
L_A_0164               288815.818 9196886.247
L_A_0165               288751.259 9196869.313
L_A_0167               288576.052 9196817.243
L_A_0168               288515.822 9196809.973
L_A_0169               288437.717 9196806.163
L_A_0170               288412.987 9196800.817
L_A_0170               288393.267 9196792.827
L_A_0171               288245.839 9196610.362
L_A_0171               288226.260 9196616.447
L_A_0172               288202.712 9196621.739
L_A_0172               288170.962 9196621.739
L_A_0173               288149.531 9196625.708
L_A_0173               288152.706 9196671.481
L_A_0173               288125.454 9196680.212
L_A_0173               288088.676 9196685.239
L_A_0174               288078.022 9196692.330
L_A_0174               288044.367 9196694.553
L_A_0174               288011.030 9196693.918
L_A_0174               288020.237 9196755.513
L_A_0174               287992.615 9196758.053
L_A_0174               287919.590 9196759.323
L_A_0174               287826.456 9196763.768
L_A_0175               287814.285 9196760.064
L_A_0175               287764.014 9196750.803
L_A_0175               287733.852 9196744.189
L_A_0175               287684.957 9196729.054
L_A_0175               287663.367 9196722.387
L_A_0176               288644.608 9196314.420
L_A_0176               288605.672 9196318.128
L_A_0176               288573.435 9196318.918
L_A_0176               288537.451 9196318.653
L_A_0176               288490.884 9196319.755
L_A_0176               288460.404 9196320.073
L_A_0176               288436.592 9196319.438
L_A_0176               288386.109 9196322.930
L_A_0176               288370.234 9196323.565
L_A_0177               288201.483 9196330.646
L_A_0178               288148.142 9196331.281
L_A_0179               288096.707 9196335.091
L_A_0179               288039.056 9196335.980
L_A_0179               287988.256 9196334.921
L_A_0180               287955.183 9196331.746
L_A_0180               287946.452 9196328.571
L_A_0180               287883.746 9196328.307
L_A_0180               287846.439 9196328.571
L_A_0181               287801.231 9196328.765
L_A_0182               287799.910 9196214.194
L_A_0182               287800.249 9196193.197
L_A_0183               288320.129 9196759.799
L_A_0186               288268.473 9196885.270
L_A_0186               288268.790 9196817.325

[TIMESERIES]
;;Name                 Date       Time       Value
TS_TR25      0:00    20.34
TS_TR25      0:05    22.03
TS_TR25      0:10    24.05
TS_TR25      0:15    26.49
TS_TR25      0:20    29.51
TS_TR25      0:25    33.32
TS_TR25      0:30    38.29
TS_TR25      0:35    45.00
TS_TR25      0:40    54.48
TS_TR25      0:45    68.78
TS_TR25      0:50    92.36
TS_TR25      0:55    136.99
TS_TR25      0:60    177.16
TS_TR25      0:65    110.70
TS_TR25      0:70    78.95
TS_TR25      0:75    60.84
TS_TR25      0:80    49.30
TS_TR25      0:85    41.38
TS_TR25      0:90    35.63
TS_TR25      0:95    31.30
TS_TR25      0:100    27.91
TS_TR25      0:105    25.21
TS_TR25      0:110    22.99
TS_TR25      0:115    21.15
TS_TR50      0:00    22.27
TS_TR50      0:05    24.12
TS_TR50      0:10    26.32
TS_TR50      0:15    29.00
TS_TR50      0:20    32.30
TS_TR50      0:25    36.48
TS_TR50      0:30    41.92
TS_TR50      0:35    49.26
TS_TR50      0:40    59.64
TS_TR50      0:45    75.29
TS_TR50      0:50    101.11
TS_TR50      0:55    149.96
TS_TR50      0:60    193.93
TS_TR50      0:65    121.18
TS_TR50      0:70    86.43
TS_TR50      0:75    66.60
TS_TR50      0:80    53.97
TS_TR50      0:85    45.29
TS_TR50      0:90    39.01
TS_TR50      0:95    34.26
TS_TR50      0:100    30.56
TS_TR50      0:105    27.59
TS_TR50      0:110    25.17
TS_TR50      0:115    23.15

[REPORT]
INPUT      YES
CONTROLS   NO
SUBCATCHMENTS ALL
NODES ALL
LINKS ALL

[MAP]
DIMENSIONS 287635.487 9195848.317 289305.487 9197633.317

[BACKDROP]
FILE ..\05_MAPAS\ortomosaico_Conde_preview.png
DIMENSIONS 287599.686 9195246.493 289018.777 9196348.889

[END]
